 # Version information for this restart file 
 # current date 2024-09-02 12:06:39.104
 # current working dir /mnt/lustre/a2fs-work2/work/e05/e05/cmmp_kj/testing_cp2k_apt_time_indep/cp2k/cp2k-2023.1/testing_apt_ext/timeindeptest
 # Program compiled at                              Mon  2 Sep 11:10:18 BST 2024
 # Program compiled on                                                      ln04
 # Program compiled for                                                  ARCHER2
 # Source code revision number                                       git:b888bd8
 &GLOBAL
   PRINT_LEVEL  LOW
   PROJECT_NAME trying_md
   RUN_TYPE  MD
 &END GLOBAL
 &MOTION
   &MD
     ENSEMBLE  NVE
     STEPS  100
     TIMESTEP     9.9999999999999989E-01
     STEP_START_VAL  40
     TIME_START_VAL     4.0000000000000021E+01
     ECONS_START_VAL    -2.2101082427165820E+03
     TEMPERATURE     3.0000000000000000E+02
     &AVERAGES  T
       &RESTART_AVERAGES
         ITIMES_START  1
         AVECPU     9.5945525327697379E-01
         AVEHUGONIOT     0.0000000000000000E+00
         AVETEMP_BARO     0.0000000000000000E+00
         AVEPOT    -2.2106198896669857E+03
         AVEKIN     5.1124410097478012E-01
         AVETEMP     2.8100596340777764E+02
         AVEKIN_QM     0.0000000000000000E+00
         AVETEMP_QM     0.0000000000000000E+00
         AVEVOL     2.5929640507955100E+04
         AVECELL_A     2.9598213501547946E+01
         AVECELL_B     2.9598213501547946E+01
         AVECELL_C     2.9598213501547946E+01
         AVEALPHA     9.0000000000000000E+01
         AVEBETA     9.0000000000000000E+01
         AVEGAMMA     9.0000000000000000E+01
         AVE_ECONS    -3.3082270679201642E-01
         AVE_PRESS     0.0000000000000000E+00
         AVE_PXX     0.0000000000000000E+00
       &END RESTART_AVERAGES
     &END AVERAGES
     &PRINT
       &CENTER_OF_MASS  SILENT
         &EACH
           MD  1
         &END EACH
       &END CENTER_OF_MASS
     &END PRINT
   &END MD
   &PRINT
     &TRAJECTORY  SILENT
       UNIT angstrom
       FORMAT  XMOL
       &EACH
         MD  1
       &END EACH
     &END TRAJECTORY
     &VELOCITIES  ON
     &END VELOCITIES
     &FORCES  ON
     &END FORCES
     &RESTART_HISTORY  SILENT
       &EACH
         MD  10000
       &END EACH
     &END RESTART_HISTORY
   &END PRINT
 &END MOTION
 &MULTIPLE_FORCE_EVALS
   FORCE_EVAL_ORDER  1..3
   MULTIPLE_SUBSYS  T
 &END MULTIPLE_FORCE_EVALS
 &FORCE_EVAL
   METHOD  MIXED
   &MIXED
     MIXING_TYPE  GENMIX
     NGROUPS  1
     &GENERIC
       MIXING_FUNCTION a+b
       VARIABLES a b
     &END GENERIC
   &END MIXED
   &SUBSYS
     &CELL
       A     1.5662700000000001E+01    0.0000000000000000E+00    0.0000000000000000E+00
       B     0.0000000000000000E+00    1.5662700000000001E+01    0.0000000000000000E+00
       C     0.0000000000000000E+00    0.0000000000000000E+00    1.5662700000000001E+01
       MULTIPLE_UNIT_CELL  1 1 1
     &END CELL
     &COORD
O    5.8636383213641075E+01    6.7006126420294606E+01   -3.9885643909213123E+01
H    5.7866202930261473E+01    6.6366792969245253E+01   -3.9747171515329441E+01
H    5.8693814517585075E+01    6.7246920631073905E+01   -3.8944403283616431E+01
O    7.0223643635370919E+01    9.9947498467533308E+01    6.8046046358386761E+01
H    6.9571940462827101E+01    1.0066234281607329E+02    6.8275789768024126E+01
H    7.0267948323356805E+01    9.9493781040393614E+01    6.8899742014121941E+01
O    5.7371164323686052E+01    1.0923105173020046E+02    1.5873863086712751E+01
H    5.8142135258124306E+01    1.0923914326023288E+02    1.6467966583864616E+01
H    5.7056626125878729E+01    1.1017976144746748E+02    1.5922377073487015E+01
O    1.7257321339338151E+02    1.0008924253170154E+02    5.5542617296247535E+01
H    1.7320264966314150E+02    1.0068294036602180E+02    5.5949891474446545E+01
H    1.7234678752783790E+02    9.9432898646703478E+01    5.6260164742270348E+01
O    9.5571283346742149E+01    8.5164801205586897E+01   -1.4502728768983246E+01
H    9.5702821956851096E+01    8.4464454432971877E+01   -1.3825287526725964E+01
H    9.5089435668065960E+01    8.4682337506499067E+01   -1.5293347282773418E+01
O    8.3342760168692209E+01    1.3721514348633829E+02   -1.5053261755048196E+01
H    8.2388672767672176E+01    1.3746974020237664E+02   -1.5074256047924536E+01
H    8.3232830906450459E+01    1.3635355397488149E+02   -1.4590262134294466E+01
O    9.3867881812875460E+00    1.6923098193174303E+02    1.1172380484526704E+01
H    9.7457361054520923E+00    1.6830028232000416E+02    1.1271987310428665E+01
H    9.8623596781906713E+00    1.6976514237852334E+02    1.1854068533949889E+01
O    3.9535852505189233E+01    1.5461362457358624E+02    2.9447638730420465E-02
H    4.0457939549519168E+01    1.5508195379534695E+02    1.0115420653581568E-01
H    3.8917444652026973E+01    1.5486421400752272E+02    7.7443494175322836E-01
O    1.0111683914051960E+02    1.6098233434772763E+02    3.4239113487576547E+00
H    1.0031875075907929E+02    1.6045203536445507E+02    3.7866563804663667E+00
H    1.0119839504443529E+02    1.6173101240855235E+02    4.0531968260695130E+00
O    9.0410587099787662E+01    2.2351930301399236E+02    5.0344252116236824E+01
H    8.9629587785848571E+01    2.2406053370055341E+02    5.0586911469466855E+01
H    9.0228849810889955E+01    2.2261002864841856E+02    5.0714167646424961E+01
O    7.4622704444214378E+01    1.6495541738368175E+02   -1.2552176097889646E+01
H    7.3720768393948646E+01    1.6453234517703385E+02   -1.2469288292003974E+01
H    7.5211240403604435E+01    1.6427501166636358E+02   -1.2037041228599989E+01
O    4.4073003977075366E+01    8.9841026225733827E+01   -9.8108623270165776E+00
H    4.4316960797771060E+01    9.0567916431255682E+01   -9.1850215991916837E+00
H    4.3141190360650562E+01    8.9537267367371513E+01   -9.5140625800589866E+00
O    8.7498373350893264E+00    1.9650429398734445E+02    1.7874589418468187E+01
H    7.8097277900777886E+00    1.9610479968032482E+02    1.8008698392872873E+01
H    8.9914218425331960E+00    1.9698272500061435E+02    1.8708137798725200E+01
O    9.8361025489287314E+01    2.2387590114013415E+02    6.5645606832320622E+00
H    9.7367387504031285E+01    2.2407915437816021E+02    6.5839321059848261E+00
H    9.8517184109451563E+01    2.2388500962692638E+02    7.5435624461190338E+00
O    5.3437967132935917E+01    1.2485913233279072E+02   -1.4311209061345924E+00
H    5.3243652393948047E+01    1.2553891420146998E+02   -7.5683839393480878E-01
H    5.3942845523977077E+01    1.2413011736885019E+02   -9.6134096257834167E-01
O    9.0205078068026637E+01    1.7404681251195939E+02   -1.7882574566641608E+01
H    9.0355288523311827E+01    1.7381829440835193E+02   -1.6933274826792754E+01
H    9.0025150914951283E+01    1.7325101171240212E+02   -1.8368461695658134E+01
O    4.5210755409777057E+01    1.0887223129464883E+02    2.8732669608079195E+01
H    4.4789167443267509E+01    1.0799349496859027E+02    2.8651356198579872E+01
H    4.6104255853842979E+01    1.0856294749039107E+02    2.8940436416322086E+01
O    5.0754021595731075E+01    1.7022873973982593E+02    1.9260739653447885E+01
H    5.1065639872915305E+01    1.7105196030431804E+02    1.9862081963366141E+01
H    4.9912145953365062E+01    1.7008725591912403E+02    1.9701606699479303E+01
O    1.0025060702343040E+02    1.2042355095871261E+02    2.8836875146415775E+01
H    1.0047923469057729E+02    1.2076101308073665E+02    2.9726472790549440E+01
H    1.0049933138396288E+02    1.2115018050842005E+02    2.8206330282465188E+01
O    6.9498648635903692E+01    1.0680944859550100E+02    1.0519627045393469E+02
H    6.9110831315599327E+01    1.0766794268451964E+02    1.0548543271068320E+02
H    7.0462404877155137E+01    1.0699763929688351E+02    1.0525312182699395E+02
O    3.1901935211536657E+01    1.2373682387100567E+02    1.6321146301827390E+01
H    3.2535494891986978E+01    1.2440290465475267E+02    1.6732551967395104E+01
H    3.1927442895330170E+01    1.2385719723306710E+02    1.5348550958913076E+01
O    3.5485982865958569E+01    1.1390772808227956E+02   -4.6426261888317278E+01
H    3.4912682074520816E+01    1.1375937191894678E+02   -4.5633471914172240E+01
H    3.5191440931718851E+01    1.1310594117719207E+02   -4.6938367141196615E+01
O    7.2796384323955436E+01    1.5104486534766380E+02    5.8212555386894465E+01
H    7.2964245522397519E+01    1.5060610620284641E+02    5.9091581054228385E+01
H    7.3504322550732510E+01    1.5068237257421654E+02    5.7604302433034569E+01
O    1.0322977410605004E+01    1.4033529841245519E+02    1.2432631847020881E+01
H    1.0709127389459121E+01    1.3996664415331622E+02    1.3256332208233562E+01
H    9.5639925654926099E+00    1.4098608905657031E+02    1.2637891373253671E+01
O    4.7480400265777384E+01    1.1957997883804087E+02    9.2676733625430359E+00
H    4.7250106614511232E+01    1.1984550839089538E+02    1.0235881270492744E+01
H    4.8461353661757030E+01    1.1946509959072856E+02    9.3563704193286021E+00
O    1.4545678017839752E+01    1.0930795184879257E+02   -5.3261115983933944E+00
H    1.5021096394528586E+01    1.1011920144109028E+02   -5.6341358901333320E+00
H    1.4514359906036304E+01    1.0920824528942630E+02   -4.3682654362731483E+00
O    1.4197854812356530E+02    1.3303862121387033E+02   -6.4662264788267180E+01
H    1.4188301300223108E+02    1.3396787550976151E+02   -6.4316367086454491E+01
H    1.4120935671440910E+02    1.3288880042657422E+02   -6.5223967512529811E+01
O    3.7265177654244823E+01    1.2635628681806587E+02   -3.0352993786794958E+01
H    3.7925442351616972E+01    1.2706944706375643E+02   -3.0240940817626473E+01
H    3.7414930075880278E+01    1.2559307140731457E+02   -2.9758904937511304E+01
O    7.4696410794946814E+01    1.3773638359635666E+02    2.8320007192809250E+01
H    7.4917047260061452E+01    1.3719957877288979E+02    2.9102982474565316E+01
H    7.4890584264957084E+01    1.3717036959500720E+02    2.7513671079800361E+01
O    8.6054575292153928E+01    1.3547998755107412E+02    7.0691164250455749E+00
H    8.5933310360623636E+01    1.3548209939794739E+02    8.1013383803468617E+00
H    8.5699590844187952E+01    1.3632335275341561E+02    6.6707713427794504E+00
O    4.4404458695930614E+01    1.5738090200629597E+02    5.3143257643312218E+01
H    4.3599019747073015E+01    1.5713230298027693E+02    5.3686983886100911E+01
H    4.4746946520927906E+01    1.5817400207878711E+02    5.3472773236128006E+01
O    1.6031339946765208E+01    1.3004930054888587E+02   -6.4009140682471777E-01
H    1.6268423283158917E+01    1.2908870801983903E+02   -5.2597209916695786E-01
H    1.5862060219005045E+01    1.3019703348249186E+02   -1.6136381248537828E+00
O    1.0820074824294014E+02    1.1307119145880003E+02    2.1828172400682590E+01
H    1.0745436278497279E+02    1.1348647849023466E+02    2.2331189728245846E+01
H    1.0900325391927456E+02    1.1324831224472427E+02    2.2315337353740738E+01
O    6.4944614475359757E+01    1.1943946201122304E+02   -1.3170820166732565E+01
H    6.5126715067529460E+01    1.1852635978934484E+02   -1.3611225667872539E+01
H    6.4603548347366115E+01    1.1929407103917210E+02   -1.2243790628777653E+01
O    8.8785963465941506E+01    1.3468122129679392E+02   -1.5998291286915973E+00
H    8.8043597151906624E+01    1.3524738022659020E+02   -1.2533533865758892E+00
H    8.8572375094043394E+01    1.3379319013324351E+02   -1.2620573758274847E+00
O    4.7482878964972713E+01    1.8297610857499819E+02    3.0051589222772904E+01
H    4.8026463919179449E+01    1.8337957224716283E+02    3.0832470198947661E+01
H    4.6629837044117316E+01    1.8279203202471953E+02    3.0483975230152527E+01
O    1.2265133909055209E+02    1.7236755911982775E+02    4.8694146918522399E+01
H    1.2336598043993234E+02    1.7293759991850862E+02    4.8405275340330782E+01
H    1.2310050853335585E+02    1.7166016395074172E+02    4.9186477054941356E+01
O    1.2622574993548672E+02    1.7735524066953212E+02   -8.1846433574071938E+01
H    1.2557442697618497E+02    1.7684251075367055E+02   -8.2446794210028173E+01
H    1.2692616864631678E+02    1.7667475503669266E+02   -8.1787295402531385E+01
O    2.8336366827923928E+01    1.4469791306285916E+02    1.6103559810447418E+01
H    2.8374127241398725E+01    1.4528001131975111E+02    1.5359303336261465E+01
H    2.8416077738665035E+01    1.4529392840669561E+02    1.6867899765920590E+01
O    9.3871691912236898E+01    1.0543810891733087E+02    5.8874444651949368E+01
H    9.4077242134510968E+01    1.0525494903284537E+02    5.9858678863776525E+01
H    9.4099148196313124E+01    1.0632945597937706E+02    5.8721203470869604E+01
O    1.1214445236319568E+02    1.5642067049030248E+02    3.3152605587129109E+01
H    1.1181557001175429E+02    1.5698522818785335E+02    3.3973325879608758E+01
H    1.1287370631304827E+02    1.5580839573289563E+02    3.3491730381041599E+01
O    6.5901682728484943E+01    1.5515361107196816E+02    7.7091080959852087E+00
H    6.6834753516839925E+01    1.5532349222393785E+02    7.5061373516256928E+00
H    6.5911931604738001E+01    1.5478647250090029E+02    8.6425157449803756E+00
O    3.8303268681793028E+01    9.4690775237031090E+01    4.1664388683911739E+01
H    3.7449323823306273E+01    9.4228282835134777E+01    4.1863726293100541E+01
H    3.8653898272223046E+01    9.4852639699488336E+01    4.2558891432805083E+01
O    8.4926080703240459E+01    1.1285145299600116E+02    9.4282826689032557E+00
H    8.5437891648919333E+01    1.1334369356529035E+02    1.0119222405247294E+01
H    8.4948658715954821E+01    1.1196345719003440E+02    9.7822329146052205E+00
O    8.6804041646561643E+01    1.2046485648489983E+02    3.1068910166964230E+01
H    8.6526664527244591E+01    1.2136182636835728E+02    3.1050250936433162E+01
H    8.7168037979467385E+01    1.2039432825043269E+02    3.1989833073743686E+01
O    7.9701469097423015E+01    1.2642417496731635E+02    5.1090993335226038E+01
H    7.9181659087066222E+01    1.2574171970712756E+02    5.1552431377101101E+01
H    8.0281379514173310E+01    1.2655388356092654E+02    5.1857748308718108E+01
O    1.7046978064696450E+01    8.3070414669338859E+01    5.3308042063434812E+01
H    1.6865718602150320E+01    8.3696067246849253E+01    5.2512128852012957E+01
H    1.6808750825197929E+01    8.3597680288345913E+01    5.4122610557487327E+01
O    1.1021307769991795E+02    1.7379614948173986E+02    9.2580954824402468E+00
H    1.1100420560274191E+02    1.7361862123099272E+02    9.8431658435081459E+00
H    1.1059563580130916E+02    1.7360423000713348E+02    8.3456854284195892E+00
O    5.8958039590407715E+01    1.7261809828056872E+02    5.7254033314712878E+01
H    5.8523051863043513E+01    1.7222777998025151E+02    5.8047487997661960E+01
H    5.9918695452956165E+01    1.7228924945957263E+02    5.7317007986041816E+01
O    7.5845445364077008E+01    8.8102522670129716E+01    1.4162331015017800E+01
H    7.5976845101223319E+01    8.7951755328385062E+01    1.5146612637448941E+01
H    7.4853086591492598E+01    8.8100929301856297E+01    1.4260951791709012E+01
O    8.6231379260381075E+01    1.0996800662960078E+02    7.3090523853842582E+00
H    8.6179899387441125E+01    1.0899899310312233E+02    7.4786424852430962E+00
H    8.5908471306437647E+01    1.1038210203296730E+02    8.0991905099303754E+00
O    1.2280519405490178E+02    1.3236929873306678E+02    7.9003370097859687E+01
H    1.2359396202866057E+02    1.3292659909167466E+02    7.9010904417347959E+01
H    1.2222461355423239E+02    1.3268867607699971E+02    7.9720365402792481E+01
O    7.3758646862723765E+01    1.7960648009506261E+02   -2.4772678190766708E+01
H    7.3379751484659408E+01    1.7924553370027030E+02   -2.3988253522578795E+01
H    7.4698373796628189E+01    1.7940834792787422E+02   -2.4673011445612236E+01
O    4.3540054641076686E+01    1.3156071906765894E+02    1.0167280742805225E+01
H    4.3078881511798123E+01    1.3090243828466390E+02    1.0785128765828707E+01
H    4.4418372255264018E+01    1.3133409345118704E+02    9.9791873067841568E+00
O    1.3036164346110075E+02    1.2472774450324982E+02   -3.9755455957232870E+00
H    1.3066646998704917E+02    1.2483801890025488E+02   -3.0419782925800032E+00
H    1.2967638209179694E+02    1.2404672416438437E+02   -3.8730934267870052E+00
O    7.0011739320992589E+01    9.7582861021995114E+01   -2.2450846292259605E+00
H    6.9149603897025202E+01    9.8040487400539718E+01   -2.0010845204712213E+00
H    7.0632452225814163E+01    9.7911152973483993E+01   -1.5487535345772561E+00
O    1.2921102427219094E+02    1.6501785008803782E+02    4.7269872608848679E+01
H    1.2978049321163135E+02    1.6493410205321223E+02    4.8061550685471374E+01
H    1.2849637180693003E+02    1.6436361674843124E+02    4.7481048465679898E+01
O    1.0439273330289060E+02    7.5621233106391117E+01    5.5166990679499442E+01
H    1.0421691839403987E+02    7.5421745083451327E+01    5.6104803260764783E+01
H    1.0460404247050042E+02    7.6585323563962291E+01    5.5131369887339403E+01
O    8.0962002175107500E+01    1.6085331776447021E+02   -2.8359243985202216E+01
H    8.1080614828915799E+01    1.6181668503097015E+02   -2.8053654756652346E+01
H    8.0017393208578412E+01    1.6070811476074402E+02   -2.8231784411882835E+01
O    4.5075285194861500E+01    1.0020063347075002E+02    1.9818127672686174E+01
H    4.4487564538496081E+01    9.9381598220974098E+01    1.9687379368979453E+01
H    4.5405042477810461E+01    1.0011861191341193E+02    2.0684876613707502E+01
O    1.2994813225021824E+02    1.5171655095672406E+02    1.9789102204817734E+01
H    1.2954446680432804E+02    1.5257436245273183E+02    1.9661422885036792E+01
H    1.3086858561064162E+02    1.5195370350098048E+02    2.0115364465448252E+01
O    1.8004017426889863E+01    1.4791844097937357E+02    4.1955380389774177E+01
H    1.7293515157700465E+01    1.4731955066708636E+02    4.2270160372359328E+01
H    1.8674526872415331E+01    1.4715749962973868E+02    4.1647183777624505E+01
O    1.0095143966994752E+02    7.0234630109890190E+01    3.0108559880492155E+01
H    1.0026221296850345E+02    7.0281970172630423E+01    3.0778434908495619E+01
H    1.0097828576455406E+02    7.1147981679012986E+01    2.9809833683604428E+01
O    7.2466918609626376E+01    1.6130942001446414E+02    1.4487509112018941E+01
H    7.2790508172161978E+01    1.6055056380509185E+02    1.5039439034876867E+01
H    7.2536476852053781E+01    1.6207847075391456E+02    1.5027696965573455E+01
O    2.0567475180660679E+01    1.2823213990766982E+02    2.0018313655958682E+01
H    1.9794901758841760E+01    1.2857655485683026E+02    1.9496514093588601E+01
H    2.0327432292240221E+01    1.2856785309914801E+02    2.0945492616266908E+01
O    1.0470901225888484E+02    1.2807111079894875E+02    1.0181993357776742E+01
H    1.0397182965265661E+02    1.2764818770925353E+02    9.7968799288022126E+00
H    1.0542279442322472E+02    1.2733960208487163E+02    1.0196487732599316E+01
O    1.0006454112595006E+02    1.4906945242195181E+02    5.3163218780049263E+01
H    1.0067328126921109E+02    1.4981110034088775E+02    5.3354492828024483E+01
H    9.9300437903411861E+01    1.4919607981280478E+02    5.3756560544132697E+01
O    1.6469034806540807E+02    1.8879238825671337E+02    1.2240442169255631E+02
H    1.6405774604639439E+02    1.8839790457651867E+02    1.2306248116263583E+02
H    1.6468360882280598E+02    1.8975651678589102E+02    1.2261015770589786E+02
O    1.5791898566425195E+02    1.2237099904875555E+02    5.6712909888863400E+01
H    1.5720104826677235E+02    1.2296249089204773E+02    5.6313637501739137E+01
H    1.5771212015262481E+02    1.2144290072559902E+02    5.6518588929379732E+01
O    3.8288621652742918E+01    1.4456545464800556E+02    4.7715006145401055E+01
H    3.8510627039713164E+01    1.4510652905799091E+02    4.8614308373234884E+01
H    3.7302417213505336E+01    1.4469324098272114E+02    4.7682775872568520E+01
O    4.6210215773613925E+01    1.4498548349789058E+02    2.5639526677115473E+01
H    4.6655764165043493E+01    1.4418020236746864E+02    2.5360249081748556E+01
H    4.5663215533194951E+01    1.4471972466160972E+02    2.6386101139894112E+01
O    6.8915181547019046E+01    1.0803213673419664E+02   -1.3569151493091500E+01
H    6.8455807081340126E+01    1.0722950901974166E+02   -1.3896593203982540E+01
H    6.9247092699246593E+01    1.0776712548008021E+02   -1.2669847244730123E+01
O    8.8754661441822378E+01    1.2136923067387829E+02    1.7484058744659283E+01
H    8.8605294594592507E+01    1.2224544524290694E+02    1.7838281650724181E+01
H    8.9731012964860938E+01    1.2117690802303964E+02    1.7545484293424064E+01
O    1.3642285906134205E+02    1.2546183703364773E+02    3.9053703216749192E+01
H    1.3666547422911069E+02    1.2553753921204751E+02    3.9993557502483419E+01
H    1.3548399276336525E+02    1.2574180716255735E+02    3.9205519833266486E+01
O    6.9701720128001440E+01    1.3772877482175781E+02    6.7250592766176752E+01
H    7.0415769814799532E+01    1.3713314976824367E+02    6.6983987492267630E+01
H    7.0065825832039991E+01    1.3807253031490086E+02    6.8112496450849846E+01
O    6.4397347968801057E+01    9.0848177818779803E+01   -9.9329932710138316E+00
H    6.4970685145848407E+01    9.1188807868555685E+01   -9.2154102187403186E+00
H    6.3805509197049638E+01    9.1601909676051605E+01   -1.0079562620710071E+01
O    6.1323083146924986E+01    2.1677760072228557E+02    8.1435086270097496E+00
H    6.0734855174892765E+01    2.1621261525093323E+02    8.7155846362531211E+00
H    6.0934228609873479E+01    2.1766136055282215E+02    8.1440873297397562E+00
O    8.3107673348323232E+01    1.2003666366294661E+02    3.8992339384681010E+01
H    8.2426792059337401E+01    1.1962964436150125E+02    3.9541721478517566E+01
H    8.2636254105522056E+01    1.1994945358696522E+02    3.8154876111403979E+01
O    9.9570252084123084E+01    2.1644191650407333E+02   -3.8288026167921977E+01
H    9.9305225627787848E+01    2.1554897642271422E+02   -3.8564855142857475E+01
H    9.9840348776944211E+01    2.1622084264361223E+02   -3.7331319864926641E+01
O    1.1387507790934660E+02    1.1606506181074988E+02   -1.1596140462212324E+01
H    1.1450617579126236E+02    1.1568565525192719E+02   -1.0966970353921301E+01
H    1.1337593506888736E+02    1.1676831383703573E+02   -1.1092985925814915E+01
O    1.4001523501851042E+02    1.6632358843604572E+02   -1.4451256728526300E+01
H    1.4100028467714972E+02    1.6628740060238238E+02   -1.4293762629689253E+01
H    1.3960492143532821E+02    1.6686702928635648E+02   -1.3760461881514418E+01
O    9.1048497007504025E+01    1.1540636612069834E+02    7.6521912035926093E+01
H    9.1019765696848523E+01    1.1591950163583250E+02    7.7332798711418945E+01
H    9.0064128426298709E+01    1.1519665655048196E+02    7.6453092240184404E+01
O    6.7563935481643469E+01    1.6150221580364669E+02   -2.1210178447642525E+00
H    6.7593522397854287E+01    1.6245669625599635E+02   -2.2971327348225676E+00
H    6.7201284312630193E+01    1.6154449174409817E+02   -1.1491942567079541E+00
O    6.6202621455712560E+01    1.6520647562646329E+02   -2.5626059203681834E+01
H    6.5282540140910967E+01    1.6548503977296559E+02   -2.5578427397643836E+01
H    6.6568977513279947E+01    1.6586561519911305E+02   -2.6276751958588612E+01
O    8.2529085447168001E+01    8.3655853063622899E+01    4.0698687956498333E+01
H    8.3183859768036555E+01    8.4469492229086669E+01    4.0635196994665904E+01
H    8.3135193753188062E+01    8.3079521925772923E+01    4.1177004198409563E+01
O    1.5123149946230311E+02    1.4736255003315068E+02    5.0927725268342144E+01
H    1.5027680366963369E+02    1.4746507097110472E+02    5.1083005498355227E+01
H    1.5155364931562110E+02    1.4731632350777036E+02    5.1862126730763087E+01
O    5.5389946931687746E+01    8.2487295581831219E+01    7.4608420039676453E+00
H    5.5800502672202676E+01    8.3097468295663106E+01    8.0541061685662196E+00
H    5.4820654811326044E+01    8.1940644279001276E+01    8.0602152923891026E+00
O    7.2290416740752036E+01    1.3180177008442996E+02    5.5867987690762909E+01
H    7.1657790166448365E+01    1.3251143188259471E+02    5.6077962987477434E+01
H    7.2837060551519841E+01    1.3166801388597233E+02    5.6728000034147399E+01
O    8.2245969379530450E+01    1.7974019253934028E+02    1.3294416048045198E+01
H    8.2389488734441727E+01    1.8017488563246275E+02    1.4188722432771240E+01
H    8.1264502676418161E+01    1.7949985717600586E+02    1.3203806008089055E+01
O    9.6949016608207472E+01    9.7244601141999212E+01    1.2660014971144008E+01
H    9.6774466152159661E+01    9.6639415696503121E+01    1.3412732969213117E+01
H    9.7744131234715312E+01    9.7789639688811903E+01    1.3035790122415410E+01
O    9.2376715365818185E+01    1.0170903309040717E+02    7.4661458874006783E+01
H    9.1634807448926637E+01    1.0105641206090330E+02    7.4794644589285255E+01
H    9.2228656192559626E+01    1.0247348124464209E+02    7.5195335917998548E+01
O    5.0871624410527389E+01    1.2731053383661077E+02    4.0101392911812482E+01
H    5.1756600510407878E+01    1.2770230438246922E+02    4.0285201271252646E+01
H    5.0629345554557709E+01    1.2697852545069242E+02    4.0991699391325611E+01
O    7.0764025488240563E+01    1.1876403527329366E+02   -6.1421676794502602E+00
H    7.1216292427399324E+01    1.1917972036193693E+02   -5.3947406396768063E+00
H    6.9875237919006338E+01    1.1848322010677751E+02   -5.7244399579661520E+00
O    2.9488106509074303E+01    1.2870340788608519E+02    4.3612437084176406E+01
H    2.9262964863988554E+01    1.2947473901624844E+02    4.4153937167395341E+01
H    2.8749460947788933E+01    1.2813631933466985E+02    4.3812096337224901E+01
O    7.0582286633876677E+01    1.6985165768999144E+02    2.2795261947565198E+01
H    6.9928185080822530E+01    1.6975425159327793E+02    2.3539683967864924E+01
H    7.1518270279041488E+01    1.6969049191254533E+02    2.3152518314769665E+01
O    9.6235461247202352E+01    1.1067595731833885E+02    3.8022956372310418E+01
H    9.6654997662647546E+01    1.0985294080223183E+02    3.8375653650106401E+01
H    9.6672281489669686E+01    1.1132203837288012E+02    3.8648964524278377E+01
O    5.6105273199811592E+01    1.6722129819125576E+02    4.0822222753958668E+00
H    5.6755040734484197E+01    1.6695688874920029E+02    4.8120999342274926E+00
H    5.6675768194765041E+01    1.6760270475048662E+02    3.3023844429497551E+00
O    1.0377680392364188E+02    6.1307365189721693E+01    5.0171426573576873E+01
H    1.0305406083921960E+02    6.1651448385051637E+01    5.0757904642676252E+01
H    1.0433450883635417E+02    6.2111278781068947E+01    5.0015945330678022E+01
O    1.0571622922088726E+02    1.4235812723443328E+02   -1.1929203916157883E+01
H    1.0616228147208133E+02    1.4202185394139093E+02   -1.2743584965564031E+01
H    1.0637238398978145E+02    1.4219667273004924E+02   -1.1194377543138202E+01
O    5.9882252225371744E+01    1.9880626763496716E+02   -1.2875919010824878E+01
H    5.9445659751362577E+01    1.9793389481210954E+02   -1.2726431178754654E+01
H    5.9955822486508268E+01    1.9916862595965330E+02   -1.1971784314305433E+01
O    9.1602289357229793E+01    1.5252849601506722E+02    1.0146756088302263E+01
H    9.1368638972857795E+01    1.5157643588972758E+02    9.8939290056021427E+00
H    9.2360127825410714E+01    1.5246538142401883E+02    1.0714881875472058E+01
O    4.7885663269674190E+01    1.3978416791766790E+02    7.6055276508101656E+01
H    4.8459808097391502E+01    1.3917160599707864E+02    7.5501307061387593E+01
H    4.8132299383305480E+01    1.4068396121826947E+02    7.5857899187550331E+01
O    8.0392796937994916E+01    1.3706005368647203E+02   -1.4987067633972874E+01
H    8.0650710481758821E+01    1.3634796155308976E+02   -1.4335901582218012E+01
H    7.9752115481235762E+01    1.3776045186497518E+02   -1.4671130476554069E+01
O    7.9238612385231775E+01    1.9449431385726174E+02    4.0053058220298929E+00
H    7.8339658253307732E+01    1.9417301468970473E+02    3.6919753706056579E+00
H    7.9167623200094212E+01    1.9547580357370353E+02    3.9422522655972934E+00
O    7.7538203054731667E+01    1.9003162401313844E+02    6.3518126546971239E+01
H    7.7667881670541760E+01    1.9044459926989464E+02    6.4390506488559836E+01
H    7.6805678447323487E+01    1.9053720732676871E+02    6.3157869667007809E+01
O    6.2376302687456089E+01    1.2841837161894904E+02    3.4745521841251552E+01
H    6.1810331859926691E+01    1.2881664078725677E+02    3.5443164110732063E+01
H    6.2876711980034685E+01    1.2784757532700090E+02    3.5338780212136690E+01
O    4.5234040421228634E+01    1.3241141829131629E+02    6.8755884940954770E+00
H    4.5799262290012400E+01    1.3195739093337113E+02    7.5158604008002294E+00
H    4.5602573276661630E+01    1.3330807996972021E+02    6.8715254401969705E+00
O    9.7425383776869296E+01    1.8278602115546812E+02    7.5166010724899181E+01
H    9.8397688884447334E+01    1.8291418548888817E+02    7.5443173602194022E+01
H    9.7152980199624764E+01    1.8185652339957417E+02    7.5414608688357831E+01
O    7.3178286164585231E+01    2.1362589891657393E+02    6.6265949488866696E+00
H    7.3261775917013722E+01    2.1263681880117284E+02    6.5329864393645813E+00
H    7.2245820251715429E+01    2.1383569454360941E+02    6.9581498805319146E+00
O    8.8412272898128137E+01    1.4333974076024265E+02    3.1854654137201223E+01
H    8.9202875964887099E+01    1.4371826518214223E+02    3.2286727299600017E+01
H    8.7728135156014844E+01    1.4349806095390073E+02    3.2524409138327698E+01
O    1.2634212529477838E+02    1.6670326402007899E+02    2.0525230644761731E+01
H    1.2660831729950006E+02    1.6757446865498596E+02    2.0868781314447656E+01
H    1.2564002693609297E+02    1.6628593953263763E+02    2.1052326819577182E+01
O    1.4660514268754383E+01    1.0776198877850051E+02   -4.4214042336115448E+01
H    1.4175861028163613E+01    1.0699238532556356E+02   -4.3962687184044192E+01
H    1.5174512596614466E+01    1.0755798483269471E+02   -4.5063828771775889E+01
O    1.0370393513431119E+02    2.1075592035372568E+02    3.1230971807589302E+01
H    1.0361487965864218E+02    2.1119058305473138E+02    3.2126339016023124E+01