 # Version information for this restart file 
 # current date 2024-09-02 12:07:23.027
 # current working dir /mnt/lustre/a2fs-work2/work/e05/e05/cmmp_kj/testing_cp2k_apt_time_indep/cp2k/cp2k-2023.1/testing_apt_ext/timeindeptest
 # Program compiled at                              Mon  2 Sep 11:10:18 BST 2024
 # Program compiled on                                                      ln04
 # Program compiled for                                                  ARCHER2
 # Source code revision number                                       git:b888bd8
 &GLOBAL
   PRINT_LEVEL  LOW
   PROJECT_NAME trying_md
   RUN_TYPE  MD
 &END GLOBAL
 &MOTION
   &MD
     ENSEMBLE  NVE
     STEPS  100
     TIMESTEP     9.9999999999999989E-01
     STEP_START_VAL  100
     TIME_START_VAL     1.0000000000000007E+02
     ECONS_START_VAL    -2.2101082427165820E+03
     TEMPERATURE     3.0000000000000000E+02
     &AVERAGES  T
       &RESTART_AVERAGES
         ITIMES_START  1
         AVECPU     8.2300646344199757E-01
         AVEHUGONIOT     0.0000000000000000E+00
         AVETEMP_BARO     0.0000000000000000E+00
         AVEPOT    -2.2106241031288887E+03
         AVEKIN     5.1634195329527244E-01
         AVETEMP     2.8380800435044898E+02
         AVEKIN_QM     0.0000000000000000E+00
         AVETEMP_QM     0.0000000000000000E+00
         AVEVOL     2.5929640507955100E+04
         AVECELL_A     2.9598213501547949E+01
         AVECELL_B     2.9598213501547949E+01
         AVECELL_C     2.9598213501547949E+01
         AVEALPHA     9.0000000000000000E+01
         AVEBETA     9.0000000000000000E+01
         AVEGAMMA     9.0000000000000000E+01
         AVE_ECONS     3.9616646637938169E-01
         AVE_PRESS     0.0000000000000000E+00
         AVE_PXX     0.0000000000000000E+00
       &END RESTART_AVERAGES
     &END AVERAGES
     &PRINT
       &CENTER_OF_MASS  SILENT
         &EACH
           MD  1
         &END EACH
       &END CENTER_OF_MASS
     &END PRINT
   &END MD
   &PRINT
     &TRAJECTORY  SILENT
       UNIT angstrom
       FORMAT  XMOL
       &EACH
         MD  1
       &END EACH
     &END TRAJECTORY
     &VELOCITIES  ON
     &END VELOCITIES
     &FORCES  ON
     &END FORCES
     &RESTART_HISTORY  SILENT
       &EACH
         MD  10000
       &END EACH
     &END RESTART_HISTORY
   &END PRINT
 &END MOTION
 &MULTIPLE_FORCE_EVALS
   FORCE_EVAL_ORDER  1..3
   MULTIPLE_SUBSYS  T
 &END MULTIPLE_FORCE_EVALS
 &FORCE_EVAL
   METHOD  MIXED
   &MIXED
     MIXING_TYPE  GENMIX
     NGROUPS  1
     &GENERIC
       MIXING_FUNCTION a+b
       VARIABLES a b
     &END GENERIC
   &END MIXED
   &SUBSYS
     &CELL
       A     1.5662700000000001E+01    0.0000000000000000E+00    0.0000000000000000E+00
       B     0.0000000000000000E+00    1.5662700000000001E+01    0.0000000000000000E+00
       C     0.0000000000000000E+00    0.0000000000000000E+00    1.5662700000000001E+01
       MULTIPLE_UNIT_CELL  1 1 1
     &END CELL
     &COORD
O    5.9155813208176383E+01    6.7077401524830137E+01   -3.9604010620319144E+01
H    5.8409656040968848E+01    6.6498502320391779E+01   -3.9483955134395103E+01
H    5.9375683943132792E+01    6.7414279042303818E+01   -3.8680068887024639E+01
O    7.0467424627229292E+01    1.0016136414998309E+02    6.8291501974292643E+01
H    6.9771857369810434E+01    1.0079617474193388E+02    6.8552473135438049E+01
H    7.0462599083239283E+01    9.9444598900246703E+01    6.8926764619697067E+01
O    5.7457230806727878E+01    1.0926844882798456E+02    1.5684338233430781E+01
H    5.7933553746407128E+01    1.0936449108939318E+02    1.6504704024011275E+01
H    5.7205020057636048E+01    1.1021337765969265E+02    1.5516651903983849E+01
O    1.7266599300235467E+02    1.0018603141711770E+02    5.5723104837407874E+01
H    1.7340194305489072E+02    1.0072282740345096E+02    5.6196752070463141E+01
H    1.7242227104418063E+02    9.9515764152178747E+01    5.6392399786092241E+01
O    9.5605750319659023E+01    8.5035666261251919E+01   -1.4589176552877120E+01
H    9.5416461167605121E+01    8.5071000163874032E+01   -1.3648705821799409E+01
H    9.5048629050207225E+01    8.4366193565793253E+01   -1.4945941598093382E+01
O    8.3497954731548475E+01    1.3695985530157023E+02   -1.5288701532968460E+01
H    8.2588749965427525E+01    1.3695500866403069E+02   -1.4954443900681794E+01
H    8.3939973975200786E+01    1.3622560748394690E+02   -1.4829359413915309E+01
O    9.5305873754088442E+00    1.6945083047037568E+02    1.0893699542197412E+01
H    9.7791864453100583E+00    1.6854962964024148E+02    1.1252186064849898E+01
H    9.9387610669866664E+00    1.7015937194255446E+02    1.1413595177809652E+01
O    3.9538615978601385E+01    1.5440827735791592E+02   -1.4707995002564568E-02
H    4.0463491703221564E+01    1.5477664723885735E+02   -8.4932644835700996E-02
H    3.9215964710666839E+01    1.5449543933004617E+02    8.9005556235571803E-01
O    1.0119792644584128E+02    1.6100325986385505E+02    3.6368338755438758E+00
H    1.0038392214133447E+02    1.6048777318369122E+02    4.0620688630599933E+00
H    1.0143318500658836E+02    1.6171920696316226E+02    4.2729412196312735E+00
O    9.0228218068531078E+01    2.2362944643796953E+02    5.0257503653504941E+01
H    8.9452446148972470E+01    2.2422554310187908E+02    5.0466684434559518E+01
H    9.0187152307408198E+01    2.2299864782750060E+02    5.0953442220360749E+01
O    7.4504808102612984E+01    1.6481075805427153E+02   -1.2696459786659460E+01
H    7.3727334083383838E+01    1.6436743383230419E+02   -1.2347763148642676E+01
H    7.5247492944965614E+01    1.6443368354004383E+02   -1.2158644575770470E+01
O    4.4038512453817766E+01    8.9453200678587180E+01   -9.7167871441431668E+00
H    4.4012599233998237E+01    9.0379288002560543E+01   -9.3899447542147509E+00
H    4.3202956245991736E+01    8.9096989442335840E+01   -9.2841441653174090E+00
O    8.4522414542520838E+00    1.9627820963775403E+02    1.8073878291905562E+01
H    7.5317606766220058E+00    1.9608220164075911E+02    1.8323821509766400E+01
H    8.8431942901339333E+00    1.9674682356979488E+02    1.8820680160731428E+01
O    9.8209702266436352E+01    2.2394538486921718E+02    6.3432346097198717E+00
H    9.7217027231002561E+01    2.2386962643532644E+02    6.5106270970887570E+00
H    9.8526636082499010E+01    2.2410085693250213E+02    7.2511298261240089E+00
O    5.3228812816806879E+01    1.2474205018466751E+02   -1.2777358369097525E+00
H    5.2983968840085709E+01    1.2525956896368709E+02   -4.9191758651824674E-01
H    5.3862609225656101E+01    1.2405336605369897E+02   -9.8536053723584260E-01
O    8.9907321098676917E+01    1.7420351635046447E+02   -1.7832948680231574E+01
H    9.0577632285962736E+01    1.7375801161189074E+02   -1.7400485134352714E+01
H    8.9270050585141675E+01    1.7353207751395445E+02   -1.8135826900431127E+01
O    4.5033723739593142E+01    1.0915192060720209E+02    2.8686995050412818E+01
H    4.4699814382161470E+01    1.0823068267908836E+02    2.8831724443423273E+01
H    4.6006157835144101E+01    1.0891400162373031E+02    2.8789043974432825E+01
O    5.0486147533683081E+01    1.6997636654119165E+02    1.9159517277821656E+01
H    5.0618777701035995E+01    1.7081542258334915E+02    1.9812358686060758E+01
H    4.9612448452799931E+01    1.6976561560311328E+02    1.9583382869300355E+01
O    9.9769982968841560E+01    1.2053428055893103E+02    2.8862833087990310E+01
H    9.9582583220552777E+01    1.2097325036758868E+02    2.9729585433141025E+01
H    1.0028547351332239E+02    1.2123545319406013E+02    2.8307288654767568E+01
O    6.9428578433273856E+01    1.0676105177646447E+02    1.0530147906965769E+02
H    6.9071738301071406E+01    1.0763686968654027E+02    1.0556590455223422E+02
H    7.0357215880309653E+01    1.0688261607257708E+02    1.0524633174958568E+02
O    3.1729921152772089E+01    1.2383637567385730E+02    1.6455310049693725E+01
H    3.2236038479511912E+01    1.2456710862147419E+02    1.6922480216621775E+01
H    3.1739280429737892E+01    1.2414898413313989E+02    1.5499960603216680E+01
O    3.5238163445266345E+01    1.1394591005420737E+02   -4.6615666533718077E+01
H    3.4569612259679843E+01    1.1440665461480141E+02   -4.6066124740470869E+01
H    3.4890809037109491E+01    1.1301885604728614E+02   -4.6610946249763984E+01
O    7.2618554407614539E+01    1.5082775620522673E+02    5.8263384468419382E+01
H    7.2925680764095304E+01    1.5072523048836129E+02    5.9256547459362970E+01
H    7.3434840264695410E+01    1.5049361060332910E+02    5.7850266228990087E+01
O    1.0361539839679416E+01    1.4022913705871420E+02    1.2547270987476162E+01
H    1.0561053658269460E+01    1.3978052942429963E+02    1.3370641450894805E+01
H    9.5858815614104653E+00    1.4088245106547816E+02    1.2707564729326222E+01
O    4.7504896749885177E+01    1.1975762317459704E+02    9.0903176961053216E+00
H    4.6924325166231995E+01    1.1994767950249164E+02    9.8346641330503974E+00
H    4.8326151194126631E+01    1.1940970569415468E+02    9.5507528208368502E+00
O    1.4515810091338425E+01    1.0919628806349152E+02   -5.7706593967612987E+00
H    1.5221077661322170E+01    1.0993643352881405E+02   -5.6605523100960040E+00
H    1.4200594651769052E+01    1.0882275064268600E+02   -4.8918725014205782E+00
O    1.4192130990292534E+02    1.3286578528974880E+02   -6.4643004153044359E+01
H    1.4179334406172418E+02    1.3368793681871028E+02   -6.4182795622318125E+01
H    1.4119671505646289E+02    1.3284217878835796E+02   -6.5318332426899985E+01
O    3.7407964101374596E+01    1.2628605747795940E+02   -3.0318974048008151E+01
H    3.7979882272707783E+01    1.2708292479086947E+02   -3.0144649435153617E+01
H    3.7695750240277420E+01    1.2549665441320525E+02   -2.9828098703736533E+01
O    7.4973404615179462E+01    1.3794092738895372E+02    2.8991015503419387E+01
H    7.5616615164216682E+01    1.3726050501788441E+02    2.9379638509730889E+01
H    7.4872859005869955E+01    1.3772064082195797E+02    2.8062125016361339E+01
O    8.6125990998119249E+01    1.3547979215780558E+02    7.0659819012779197E+00
H    8.6216010320858672E+01    1.3492424483483734E+02    7.9447059353514646E+00
H    8.5899470300026991E+01    1.3639921566734125E+02    7.0961017742144827E+00
O    4.4790995042608863E+01    1.5724288357860715E+02    5.2771666026056657E+01
H    4.4081649057718124E+01    1.5692315689450189E+02    5.3336504384718658E+01
H    4.5084591087311068E+01    1.5816254278650098E+02    5.3181744991613819E+01
O    1.5983540079196358E+01    1.3005326165961898E+02   -5.1588378932144185E-01
H    1.6241798580144895E+01    1.2919562217272230E+02   -6.8595342482091060E-01
H    1.5984243676819322E+01    1.3046843732267860E+02   -1.3757464803344881E+00
O    1.0831382415612883E+02    1.1299259254678165E+02    2.1757146009941465E+01
H    1.0752391056413883E+02    1.1330904003695431E+02    2.2235807581812473E+01
H    1.0905698855359047E+02    1.1309332594462754E+02    2.2406906481016282E+01
O    6.4841718407989916E+01    1.1927876806258250E+02   -1.3114445038460580E+01
H    6.5603349791414260E+01    1.1874188817276323E+02   -1.2797583561146705E+01
H    6.4519297814690049E+01    1.1966715210801492E+02   -1.2267830845403415E+01
O    8.8946382055139651E+01    1.3477684449851648E+02   -1.7529394021027271E+00
H    8.8357307957859746E+01    1.3536750489041245E+02   -1.2121444333665758E+00
H    8.8732976545989516E+01    1.3388966759906617E+02   -1.3652009848869202E+00
O    4.7447337796292452E+01    1.8316185252919459E+02    2.9847748409577900E+01
H    4.8081366389452008E+01    1.8356868606862125E+02    3.0471917328660155E+01
H    4.6641114849713986E+01    1.8304499242050596E+02    3.0428210925455346E+01
O    1.2243407098774547E+02    1.7268832547214220E+02    4.8572138998264030E+01
H    1.2308767611020784E+02    1.7336715645966049E+02    4.8335727511916382E+01
H    1.2295062000914649E+02    1.7195584918694800E+02    4.8995991496530031E+01
O    1.2615053872287967E+02    1.7753406118368684E+02   -8.1908257936741379E+01
H    1.2548121264047884E+02    1.7704998758134397E+02   -8.2321244347715961E+01
H    1.2670336696137201E+02    1.7688800474494656E+02   -8.1466499988229046E+01
O    2.8360595657131402E+01    1.4491998272367059E+02    1.6553424629195444E+01
H    2.8498979876801094E+01    1.4585636077441004E+02    1.6411539468800019E+01
H    2.8103860892770012E+01    1.4499834887156885E+02    1.7509914226103181E+01
O    9.3780433530753754E+01    1.0548803110180528E+02    5.8597461878166222E+01
H    9.4005256298334288E+01    1.0522387415202000E+02    5.9566940101249124E+01
H    9.4627730016789826E+01    1.0568018202558818E+02    5.8214535895190814E+01
O    1.1207062508954256E+02    1.5665511093544114E+02    3.3231936835757686E+01
H    1.1187194300089492E+02    1.5718091924224086E+02    3.4117532607695054E+01
H    1.1251328528453618E+02    1.5583469048800626E+02    3.3455399919530350E+01
O    6.5790707754398582E+01    1.5500285622448857E+02    7.6667140763751425E+00
H    6.6659936968410591E+01    1.5477622614496428E+02    8.0677218873857601E+00
H    6.5178219416330279E+01    1.5465648611235315E+02    8.3244193671948441E+00
O    3.8263725329288782E+01    9.4648370069809218E+01    4.1278861503064640E+01
H    3.7579152203766284E+01    9.3998670710784396E+01    4.1478221705462445E+01
H    3.8740505940681977E+01    9.4690502333073198E+01    4.2134108029187800E+01
O    8.4796142553641033E+01    1.1311709621888332E+02    9.4549239941427299E+00
H    8.5201864099200634E+01    1.1384030247562627E+02    9.9862098002702595E+00
H    8.4996150249924341E+01    1.1225275864159535E+02    9.7741318169628517E+00
O    8.6580048397198155E+01    1.2016225999586291E+02    3.0945516423735391E+01
H    8.6815605581345608E+01    1.2106007806346918E+02    3.1376746265905620E+01
H    8.6594145504360995E+01    1.1947904551141718E+02    3.1612477337503680E+01
O    7.9995253654643804E+01    1.2650972078328026E+02    5.1207043986325417E+01
H    7.9401752411108149E+01    1.2584230232028821E+02    5.1631230595467017E+01
H    8.0500114825154498E+01    1.2670045780760137E+02    5.2055169429371752E+01
O    1.7118321287502610E+01    8.2993542440689183E+01    5.3373046684979592E+01
H    1.6751982459326648E+01    8.3428640723860923E+01    5.2607284827497175E+01
H    1.6740915934694424E+01    8.3440688898673329E+01    5.4171371100667344E+01
O    1.1045994482096455E+02    1.7402561614997182E+02    9.6168421467230321E+00
H    1.1125443259346700E+02    1.7371908263812691E+02    1.0064991212926524E+01
H    1.1068242968097637E+02    1.7385092814246369E+02    8.7135302948215223E+00
O    5.8832070196376883E+01    1.7257252402802061E+02    5.7421726388346961E+01
H    5.8585877220160604E+01    1.7207846421953602E+02    5.8256840601185168E+01
H    5.9784535100747227E+01    1.7235182130270377E+02    5.7274846278442247E+01
O    7.5941829082223947E+01    8.8055585537927030E+01    1.4345845991950036E+01
H    7.6221165399456595E+01    8.7396331542342850E+01    1.4960810327556114E+01
H    7.5021337503571189E+01    8.7745485429048202E+01    1.4307948795168802E+01
O    8.6554233569491061E+01    1.1029904323125477E+02    7.2967280514493673E+00
H    8.6196237073054107E+01    1.0936808772797391E+02    7.2964948786800470E+00
H    8.6156505546830942E+01    1.1057634328772085E+02    8.1407607495052297E+00
O    1.2273418989239686E+02    1.3247095083711375E+02    7.8804212523386312E+01
H    1.2352788045181019E+02    1.3282813853919450E+02    7.9139467439859118E+01
H    1.2194705412751078E+02    1.3283567672831620E+02    7.9325029162070962E+01
O    7.3800535784260433E+01    1.7969625223048160E+02   -2.4897647154921739E+01
H    7.3310132778738932E+01    1.7928268177067622E+02   -2.4178682367625349E+01
H    7.4774705324139234E+01    1.7963543122944961E+02   -2.4704544085550626E+01
O    4.3730808510667721E+01    1.3130421433795038E+02    9.7525243570278004E+00
H    4.3242024589945856E+01    1.3100155207297234E+02    1.0523927593491806E+01
H    4.4560303466871581E+01    1.3164631898521182E+02    1.0110877178473102E+01
O    1.3029398500531423E+02    1.2471884127646454E+02   -3.6248795001661884E+00
H    1.3057921372198243E+02    1.2484105077559390E+02   -2.6621489686309681E+00
H    1.2987996990903005E+02    1.2385827203909808E+02   -3.6404063630946637E+00
O    7.0031881452824791E+01    9.7508296792538502E+01   -2.2386977564419097E+00
H    6.9213071419428459E+01    9.7953314876915329E+01   -2.0485050069493664E+00
H    7.0719845858196095E+01    9.7987949076035505E+01   -1.6899579679008214E+00
O    1.2919818830268716E+02    1.6507432520710350E+02    4.7108003847559502E+01
H    1.2980456414565833E+02    1.6500344591706477E+02    4.7912895369565717E+01
H    1.2853240695101863E+02    1.6440899695241839E+02    4.7373811132968655E+01
O    1.0448648656104623E+02    7.5797257975858201E+01    5.5220352145812718E+01
H    1.0400620388739975E+02    7.5921212090536415E+01    5.6106574334485288E+01
H    1.0472167623385278E+02    7.6683155045494004E+01    5.4907849061109943E+01
O    8.1095213046113244E+01    1.6052511932363115E+02   -2.8253491924491545E+01
H    8.1214059513521150E+01    1.6144989143852527E+02   -2.8059223414792879E+01
H    8.0112261568627801E+01    1.6046278875386383E+02   -2.8088322707545384E+01
O    4.5103572738735437E+01    1.0049210082159601E+02    1.9838050949910564E+01
H    4.4664588335044954E+01    9.9631430270280291E+01    1.9592580234248516E+01
H    4.5126980078001651E+01    1.0047902981972565E+02    2.0877319423659912E+01
O    1.3036520456562766E+02    1.5146782035084135E+02    1.9822709510533539E+01
H    1.2986620174172859E+02    1.5227475913194652E+02    1.9581893097994566E+01
H    1.3119569388471845E+02    1.5178201309200520E+02    2.0221471955944708E+01
O    1.7935505737123137E+01    1.4791835785306367E+02    4.1971638395721712E+01
H    1.7420894307102824E+01    1.4722072863655788E+02    4.2452791998880329E+01
H    1.8621923342021326E+01    1.4738627002540281E+02    4.1630352930088314E+01
O    1.0120228600872760E+02    7.0284328116426650E+01    2.9946432814392356E+01
H    1.0040665130956947E+02    7.0474418031393583E+01    3.0516552719697540E+01
H    1.0125124183151105E+02    7.1127700804779181E+01    2.9465203939157593E+01
O    7.2737822001288507E+01    1.6132082171116150E+02    1.4344635775209229E+01
H    7.2844559656159873E+01    1.6044074064773289E+02    1.4728179165025335E+01
H    7.2542680528311053E+01    1.6201237199969447E+02    1.5045868681705551E+01
O    2.0647019784554768E+01    1.2819426343596555E+02    2.0016292478470024E+01
H    1.9841343112616105E+01    1.2861706071205290E+02    1.9581283864516834E+01
H    2.0543125087377909E+01    1.2853368832163247E+02    2.0967696192024878E+01
O    1.0427875827188939E+02    1.2796091536951704E+02    9.9554618472914420E+00
H    1.0343170480807890E+02    1.2762345075422841E+02    9.8015713381505503E+00
H    1.0484409467759644E+02    1.2716061338791275E+02    1.0084697463360193E+01
O    1.0013334361430745E+02    1.4917598999257982E+02    5.3040942424002459E+01
H    1.0076255224601127E+02    1.4990619465569947E+02    5.2979977155032486E+01
H    9.9888709219279775E+01    1.4917683641273840E+02    5.3938854860923414E+01
O    1.6478907857441743E+02    1.8900551730583277E+02    1.2221557610066375E+02
H    1.6415753365323690E+02    1.8845081452569289E+02    1.2271566727867889E+02
H    1.6454018769196520E+02    1.8989997517826220E+02    1.2257356262423527E+02
O    1.5811551001966518E+02    1.2245832898916670E+02    5.6478414538901930E+01
H    1.5722311248435611E+02    1.2283498442111518E+02    5.6517659797907527E+01
H    1.5805864708852826E+02    1.2161054707268570E+02    5.6006132384760605E+01
O    3.8162964540671645E+01    1.4475963418887176E+02    4.8068089795361288E+01
H    3.8019448789309031E+01    1.4512518941252858E+02    4.8936657783071809E+01
H    3.7288971380863437E+01    1.4465750140344252E+02    4.7721976016573429E+01
O    4.6328016778076972E+01    1.4499275094985393E+02    2.5637634244341090E+01
H    4.7009843275971491E+01    1.4425204737675330E+02    2.5510372990169802E+01
H    4.5717375098914253E+01    1.4464531308371753E+02    2.6268375210538707E+01
O    6.9141724734351541E+01    1.0807198360131677E+02   -1.3396827800861489E+01
H    6.8362507939968040E+01    1.0749613957913749E+02   -1.3673746551611968E+01
H    6.9484732776802105E+01    1.0758647750029141E+02   -1.2671072373090563E+01
O    8.8664892472677039E+01    1.2134325624143854E+02    1.7789350417610191E+01
H    8.8470868391344425E+01    1.2228157370963532E+02    1.8123654608648252E+01
H    8.9625739359231758E+01    1.2116050688208196E+02    1.7972202851882418E+01
O    1.3633767484363509E+02    1.2548568091288944E+02    3.9011437851058808E+01
H    1.3648497426570182E+02    1.2550462320655927E+02    3.9963942572379040E+01
H    1.3540651175702789E+02    1.2582155189240648E+02    3.8952552798618306E+01
O    6.9856506966776280E+01    1.3758299106387511E+02    6.7127050235883885E+01
H    7.0637050175520272E+01    1.3700895090247221E+02    6.7161821340019742E+01
H    6.9919439936583046E+01    1.3810522732674985E+02    6.7930751655649573E+01
O    6.4458985420234796E+01    9.1075889470976875E+01   -1.0045857728352695E+01
H    6.5137835186410300E+01    9.1438746052354759E+01   -9.4355156390894361E+00
H    6.3815075102816039E+01    9.1738178639861928E+01   -9.9995553105777173E+00
O    6.1151891967713070E+01    2.1653312226256196E+02    7.8541545779208208E+00
H    6.0580857530523737E+01    2.1624744852476547E+02    8.5837864101667432E+00
H    6.1315499680180523E+01    2.1748305166923748E+02    8.0831797208571619E+00
O    8.2776950140628585E+01    1.2003527912337228E+02    3.9094481880573589E+01
H    8.2230703519639121E+01    1.1971486125723887E+02    3.9915210284442303E+01
H    8.2063244307379989E+01    1.2045637981036975E+02    3.8583502998431051E+01
O    9.9475965543147822E+01    2.1634130809488258E+02   -3.8162470775793985E+01
H    9.9107116731177115E+01    2.1543407224384669E+02   -3.8389102782429127E+01
H    9.9688201921438235E+01    2.1616712428001060E+02   -3.7200036741796467E+01
O    1.1374576622310892E+02    1.1598341086287709E+02   -1.1556515792601553E+01
H    1.1391710097149777E+02    1.1539463794496938E+02   -1.0798076151314197E+01
H    1.1327070097252584E+02    1.1676361020917619E+02   -1.1187883107330377E+01
O    1.4034402888000912E+02    1.6614300963275380E+02   -1.4575840498781311E+01
H    1.4128243806358944E+02    1.6600168577086410E+02   -1.4307493577684445E+01
H    1.3996260305009739E+02    1.6661520077804300E+02   -1.3791207277237225E+01
O    9.1275634665865738E+01    1.1532190838364609E+02    7.6337266700456880E+01
H    9.1368466297897626E+01    1.1582507918196002E+02    7.7177983765942585E+01
H    9.0406853660924114E+01    1.1495644333121162E+02    7.6555378804196039E+01
O    6.7194387853598570E+01    1.6146499621947513E+02   -2.0162470448413234E+00
H    6.7136236714238763E+01    1.6239203061579295E+02   -2.2790439002748641E+00
H    6.6970352686409299E+01    1.6147518541567450E+02   -1.0031700881875587E+00
O    6.5681842700656006E+01    1.6506684674307488E+02   -2.5707091105478284E+01
H    6.5070207305311470E+01    1.6580368007230419E+02   -2.5916877051538375E+01
H    6.6560032377086017E+01    1.6548030355005267E+02   -2.5610740688952557E+01
O    8.2620563403592968E+01    8.3767388578754051E+01    4.0532283834054262E+01
H    8.3432154751550499E+01    8.4230567572083118E+01    4.0832769080286724E+01
H    8.2934299697563503E+01    8.2845606330714375E+01    4.0631907754367120E+01
O    1.5111181161799399E+02    1.4684370803075112E+02    5.1337801433495898E+01
H    1.5022786643531981E+02    1.4692104997548631E+02    5.1787036823056944E+01
H    1.5165479496896796E+02    1.4731214449669739E+02    5.1977555909308691E+01
O    5.5530773438077496E+01    8.2593203988292117E+01    7.3917404985423927E+00
H    5.5927904897192285E+01    8.3381026648288838E+01    7.9058841518944423E+00
H    5.4960621785119223E+01    8.2190642456448344E+01    8.0429668133941199E+00
O    7.2278345103338722E+01    1.3187127966286323E+02    5.5491831200566523E+01
H    7.1654167555607089E+01    1.3254350029235081E+02    5.5846500096791686E+01
H    7.2912804990449160E+01    1.3155012418003116E+02    5.6087904470810898E+01
O    8.2468544121388291E+01    1.7984757422540142E+02    1.3243611169179218E+01
H    8.2446101785945643E+01    1.8022116055970469E+02    1.4152253585094632E+01
H    8.1582301966620008E+01    1.7972770643147564E+02    1.2974012698551793E+01
O    9.6709160881467227E+01    9.7280116925383680E+01    1.2517471586563401E+01
H    9.6405085907332975E+01    9.6813357096581896E+01    1.3327500226127961E+01
H    9.7414318829863859E+01    9.7827820221528185E+01    1.2859099210611923E+01
O    9.2445550382126882E+01    1.0206319152007370E+02    7.4697587170348697E+01
H    9.1932192265027865E+01    1.0131398303677084E+02    7.5021189458120460E+01
H    9.2121926075099140E+01    1.0291939733698915E+02    7.5109676896124057E+01
O    5.1191664317842488E+01    1.2750162457408459E+02    3.9930751610028665E+01
H    5.2013223205813205E+01    1.2798238077609366E+02    3.9931886627010570E+01
H    5.1227694603258989E+01    1.2700153801189478E+02    4.0778096541907573E+01
O    7.0848895192708113E+01    1.1839767897461638E+02   -6.3663772714157734E+00
H    7.1363417878463949E+01    1.1891084676051531E+02   -5.6498869347392215E+00
H    7.0023435721686070E+01    1.1812002051602509E+02   -5.9590137426498719E+00
O    2.9319752541297497E+01    1.2873256821948789E+02    4.3818935551243946E+01
H    2.9319276542670938E+01    1.2934070620414235E+02    4.4543870242847831E+01
H    2.8532356845908808E+01    1.2818894546419389E+02    4.3930856389450909E+01
O    7.0340765927339774E+01    1.7003503701616754E+02    2.2979205655550501E+01
H    6.9646199675291086E+01    1.6962719217078703E+02    2.3544179195310356E+01
H    7.1224241630643476E+01    1.6970589866405291E+02    2.3246134135687758E+01
O    9.6553632626646717E+01    1.1084691338160056E+02    3.8061620606051264E+01
H    9.7199743452781590E+01    1.1012205663138960E+02    3.8189033707962331E+01
H    9.7064668051247651E+01    1.1155947454508954E+02    3.8468879073077687E+01
O    5.6235888586275607E+01    1.6714246266574986E+02    4.2325288087153590E+00
H    5.6856906257588314E+01    1.6716497459597360E+02    4.9630740807581013E+00
H    5.6738000495897907E+01    1.6747491138762635E+02    3.4092174433671278E+00
O    1.0384146377444651E+02    6.1291252529656632E+01    5.0450455011300647E+01
H    1.0292407701599136E+02    6.1516726743786656E+01    5.0780969479713569E+01
H    1.0432439077843986E+02    6.2077639671906248E+01    5.0742140776820520E+01
O    1.0544489877619183E+02    1.4231295730356115E+02   -1.1757872790302914E+01
H    1.0590964537705474E+02    1.4207082311796526E+02   -1.2603201442300191E+01
H    1.0609029658086683E+02    1.4199235504800197E+02   -1.1106458891727135E+01
O    5.9945304358117177E+01    1.9870414842915923E+02   -1.2596206696765750E+01
H    5.9493005117766366E+01    1.9781222441706606E+02   -1.2610755008161719E+01
H    5.9878764643188546E+01    1.9898778193205328E+02   -1.1642698862753502E+01
O    9.1399091920479108E+01    1.5283525591648703E+02    1.0370926637293252E+01
H    9.1151180809230468E+01    1.5194914801666400E+02    1.0130075516017337E+01
H    9.2282900556180920E+01    1.5273770412382439E+02    1.0840913545089480E+01
O    4.7906316713275771E+01    1.4004229099392407E+02    7.5795453053522706E+01
H    4.8618161006428657E+01    1.3944783902738695E+02    7.5505202254700706E+01
H    4.8071560209159728E+01    1.4096475148449707E+02    7.5603371873600537E+01
O    8.0598648306000229E+01    1.3700390215478279E+02   -1.5202848166354201E+01
H    8.0433684575442641E+01    1.3621065763738389E+02   -1.4626072038994621E+01
H    8.0379347925066398E+01    1.3784406614266280E+02   -1.4845582419005655E+01
O    7.9195832754036189E+01    1.9431232894740987E+02    4.0574934849545734E+00
H    7.8221108103713078E+01    1.9428134318431850E+02    3.8904410511241636E+00
H    7.9271610755904717E+01    1.9514566182528537E+02    4.5536056106678640E+00
O    7.7436038062311368E+01    1.9005059760091186E+02    6.3519622103313644E+01
H    7.7915974877869232E+01    1.9045679270815623E+02    6.4280096362864271E+01
H    7.6752519529748440E+01    1.9071749324490955E+02    6.3298737943700225E+01
O    6.2733935883349318E+01    1.2845605223774996E+02    3.4871844534369899E+01
H    6.2060601915486231E+01    1.2877753565840109E+02    3.5493243208560450E+01
H    6.3080453440123414E+01    1.2767699063187472E+02    3.5397137066971773E+01
O    4.5277711749342316E+01    1.3234034205207027E+02    6.9680329469734525E+00
H    4.5866377150497627E+01    1.3199909778730589E+02    7.7227123806647677E+00
H    4.5642804737172405E+01    1.3321119997010723E+02    6.8491704126638790E+00
O    9.7350209509389970E+01    1.8273661191828745E+02    7.5064430062879026E+01
H    9.8341008578513780E+01    1.8287641118288545E+02    7.5279304182034807E+01
H    9.6940663527416817E+01    1.8225276254012132E+02    7.5804102283327197E+01
O    7.3134416525969669E+01    2.1360542783423850E+02    6.7616168261742597E+00
H    7.3329316879860372E+01    2.1269602996057307E+02    6.3541848654855650E+00
H    7.2147899758964982E+01    2.1369084444648391E+02    6.9458618088479716E+00
O    8.8366365674060134E+01    1.4334569990455822E+02    3.1722821484624522E+01
H    8.9208274477435566E+01    1.4366052484686563E+02    3.2171865498705301E+01
H    8.7709966483010376E+01    1.4360548989563821E+02    3.2437398412217433E+01
O    1.2651799957558030E+02    1.6675500650201383E+02    2.0668781671957177E+01
H    1.2662722487248517E+02    1.6769008277490698E+02    2.0929402010114529E+01
H    1.2563823304384860E+02    1.6642856334102319E+02    2.0931620096141032E+01
O    1.4302135701965323E+01    1.0772099777050845E+02   -4.4096832465545170E+01
H    1.3863638695482122E+01    1.0688338337299696E+02   -4.3893058755177044E+01
H    1.4722616321929566E+01    1.0761497353579909E+02   -4.4979043056896856E+01
O    1.0349586482218349E+02    2.1085994320801623E+02    3.1201188945217339E+01
H    1.0328290296911177E+02    2.1105880333202143E+02    3.2111367714597499E+01