 # Version information for this restart file 
 # current date 2024-09-02 12:06:54.760
 # current working dir /mnt/lustre/a2fs-work2/work/e05/e05/cmmp_kj/testing_cp2k_apt_time_indep/cp2k/cp2k-2023.1/testing_apt_ext/timeindeptest
 # Program compiled at                              Mon  2 Sep 11:10:18 BST 2024
 # Program compiled on                                                      ln04
 # Program compiled for                                                  ARCHER2
 # Source code revision number                                       git:b888bd8
 &GLOBAL
   PRINT_LEVEL  LOW
   PROJECT_NAME trying_md
   RUN_TYPE  MD
 &END GLOBAL
 &MOTION
   &MD
     ENSEMBLE  NVE
     STEPS  100
     TIMESTEP     9.9999999999999989E-01
     STEP_START_VAL  60
     TIME_START_VAL     6.0000000000000036E+01
     ECONS_START_VAL    -2.2101082427165820E+03
     TEMPERATURE     3.0000000000000000E+02
     &AVERAGES  T
       &RESTART_AVERAGES
         ITIMES_START  1
         AVECPU     9.0056532692785052E-01
         AVEHUGONIOT     0.0000000000000000E+00
         AVETEMP_BARO     0.0000000000000000E+00
         AVEPOT    -2.2106226114671558E+03
         AVEKIN     5.1408459705823140E-01
         AVETEMP     2.8256724565429045E+02
         AVEKIN_QM     0.0000000000000000E+00
         AVETEMP_QM     0.0000000000000000E+00
         AVEVOL     2.5929640507955100E+04
         AVECELL_A     2.9598213501547963E+01
         AVECELL_B     2.9598213501547963E+01
         AVECELL_C     2.9598213501547963E+01
         AVEALPHA     9.0000000000000000E+01
         AVEBETA     9.0000000000000000E+01
         AVEGAMMA     9.0000000000000000E+01
         AVE_ECONS    -2.3336631453703471E-01
         AVE_PRESS     0.0000000000000000E+00
         AVE_PXX     0.0000000000000000E+00
       &END RESTART_AVERAGES
     &END AVERAGES
     &PRINT
       &CENTER_OF_MASS  SILENT
         &EACH
           MD  1
         &END EACH
       &END CENTER_OF_MASS
     &END PRINT
   &END MD
   &PRINT
     &TRAJECTORY  SILENT
       UNIT angstrom
       FORMAT  XMOL
       &EACH
         MD  1
       &END EACH
     &END TRAJECTORY
     &VELOCITIES  ON
     &END VELOCITIES
     &FORCES  ON
     &END FORCES
     &RESTART_HISTORY  SILENT
       &EACH
         MD  10000
       &END EACH
     &END RESTART_HISTORY
   &END PRINT
 &END MOTION
 &MULTIPLE_FORCE_EVALS
   FORCE_EVAL_ORDER  1..3
   MULTIPLE_SUBSYS  T
 &END MULTIPLE_FORCE_EVALS
 &FORCE_EVAL
   METHOD  MIXED
   &MIXED
     MIXING_TYPE  GENMIX
     NGROUPS  1
     &GENERIC
       MIXING_FUNCTION a+b
       VARIABLES a b
     &END GENERIC
   &END MIXED
   &SUBSYS
     &CELL
       A     1.5662700000000001E+01    0.0000000000000000E+00    0.0000000000000000E+00
       B     0.0000000000000000E+00    1.5662700000000001E+01    0.0000000000000000E+00
       C     0.0000000000000000E+00    0.0000000000000000E+00    1.5662700000000001E+01
       MULTIPLE_UNIT_CELL  1 1 1
     &END CELL
     &COORD
O    5.8819422017091142E+01    6.7023574811767190E+01   -3.9830211285221623E+01
H    5.8095131275265004E+01    6.6326073929177696E+01   -3.9673150702647050E+01
H    5.8817449672398439E+01    6.7417898262477109E+01   -3.8960244500608766E+01
O    7.0273264245844032E+01    9.9967437621331754E+01    6.8120963039184630E+01
H    6.9869130767598890E+01    1.0061474686254702E+02    6.8715063360252401E+01
H    7.0610872572228445E+01    9.9304459078278867E+01    6.8756681316005029E+01
O    5.7337617493098300E+01    1.0925292784703245E+02    1.5904805596863872E+01
H    5.8322110447013493E+01    1.0916689222599106E+02    1.6034798071992466E+01
H    5.7144212496839636E+01    1.1022626938942882E+02    1.6031479504639453E+01
O    1.7263526013261395E+02    1.0014595154585285E+02    5.5609250539454301E+01
H    1.7307296695450825E+02    1.0064016132078387E+02    5.6329382408235631E+01
H    1.7224596804787433E+02    9.9378450591403620E+01    5.6103571938229535E+01
O    9.5562162828777417E+01    8.5111274571766103E+01   -1.4519845345033088E+01
H    9.5304681401247450E+01    8.4464527795959739E+01   -1.3821719224816329E+01
H    9.5438235376431209E+01    8.4587363215600575E+01   -1.5367926215367907E+01
O    8.3380086823848671E+01    1.3710512039098111E+02   -1.5143572419802915E+01
H    8.2437761198167166E+01    1.3735474465876007E+02   -1.5235547196798162E+01
H    8.3275168472666635E+01    1.3648185177024430E+02   -1.4394210846112291E+01
O    9.4763337642946404E+00    1.6924856851387020E+02    1.1130932096932668E+01
H    9.6694546059784603E+00    1.6828286933552377E+02    1.1270926572734774E+01
H    1.0073845283457997E+01    1.6973347926869059E+02    1.1721553378842465E+01
O    3.9575868745608844E+01    1.5460752028766254E+02    4.3656652187054945E-02
H    4.0466487877776160E+01    1.5511348124842885E+02    7.6056063542922575E-02
H    3.9141514521690581E+01    1.5452326478793071E+02    9.2448561220558190E-01
O    1.0109998575596528E+02    1.6105992905209141E+02    3.5256361224480419E+00
H    1.0024082084213120E+02    1.6050502109828159E+02    3.6746176142893412E+00
H    1.0120476682305605E+02    1.6159858212742046E+02    4.3343374806963961E+00
O    9.0346882089561589E+01    2.2357871185408877E+02    5.0306695288782279E+01
H    8.9568473348549304E+01    2.2417745209621577E+02    5.0560237272502576E+01
H    9.0039303502549885E+01    2.2263256867261802E+02    5.0443608530764493E+01
O    7.4556151077444440E+01    1.6493551318222652E+02   -1.2562914212715595E+01
H    7.3673105845461166E+01    1.6448301608502481E+02   -1.2401677048796540E+01
H    7.5247599642865609E+01    1.6432615974004341E+02   -1.2078354239119896E+01
O    4.3981033073436734E+01    8.9667964831108179E+01   -9.7688177124760092E+00
H    4.4237542829670900E+01    9.0486845389503969E+01   -9.3063556888644623E+00
H    4.3111028709827146E+01    8.9421932851409906E+01   -9.3081790841619529E+00
O    8.6906729918305583E+00    1.9640368086365595E+02    1.7977063654995650E+01
H    7.7992369281501066E+00    1.9605183666097273E+02    1.7861694107392150E+01
H    8.6042028856047619E+00    1.9724785499806009E+02    1.8486144439554145E+01
O    9.8335802645172578E+01    2.2389606829453177E+02    6.5185022886599731E+00
H    9.7341979841366822E+01    2.2376916531547127E+02    6.4932505769659743E+00
H    9.8446309687745710E+01    2.2391752710765499E+02    7.5363838069324629E+00
O    5.3327039039323097E+01    1.2486561957777865E+02   -1.4171506495422761E+00
H    5.3099237152393272E+01    1.2515507761405806E+02   -5.1215016528612012E-01
H    5.3906122613532617E+01    1.2408373525456552E+02   -1.3096166245200718E+00
O    9.0090935199670866E+01    1.7411510162842609E+02   -1.7831610014827834E+01
H    9.0207957330503930E+01    1.7351804035510494E+02   -1.6988713255802097E+01
H    9.0159450510959317E+01    1.7355750870174612E+02   -1.8633929083363263E+01
O    4.5175786678724648E+01    1.0900928893119568E+02    2.8724685234053045E+01
H    4.4694598051250438E+01    1.0813992274999050E+02    2.8676886513816306E+01
H    4.6046317643191713E+01    1.0863052885714558E+02    2.8837883280753434E+01
O    5.0705518607325345E+01    1.7017874449144509E+02    1.9237048755756593E+01
H    5.1145459629072235E+01    1.7101512870696686E+02    1.9751859716063137E+01
H    5.0091873743474693E+01    1.6993585180795105E+02    1.9959884923274629E+01
O    1.0001020734103140E+02    1.2048334040123295E+02    2.8814641109351776E+01
H    1.0037878063809892E+02    1.2059967457537748E+02    2.9722707596455141E+01
H    1.0040821255202775E+02    1.2121877595818728E+02    2.8238275706782726E+01
O    6.9429787852130659E+01    1.0682003226291899E+02    1.0516844023893678E+02
H    6.9120586360547833E+01    1.0773679036116761E+02    1.0526770389575493E+02
H    7.0393628802996261E+01    1.0691074351655081E+02    1.0520012879383867E+02
O    3.1773098595411469E+01    1.2379661935136809E+02    1.6387009054741569E+01
H    3.2564316711969084E+01    1.2427102632378785E+02    1.6769694369227690E+01
H    3.1820073206967834E+01    1.2396340875167462E+02    1.5452087204888231E+01
O    3.5368763950261503E+01    1.1387434014813391E+02   -4.6522194420382590E+01
H    3.4802080549589604E+01    1.1416057202618586E+02   -4.5787870508646435E+01
H    3.5214728883725584E+01    1.1289165242102858E+02   -4.6531967147222453E+01
O    7.2732479059417173E+01    1.5106990214734378E+02    5.8175509096554244E+01
H    7.3034487436212316E+01    1.5085784948311553E+02    5.9130013395943436E+01
H    7.3557219941576250E+01    1.5094048297331804E+02    5.7668008355197927E+01
O    1.0278501982824405E+01    1.4027767558044698E+02    1.2422324108026578E+01
H    1.0529673579113995E+01    1.4025917265209247E+02    1.3385827036732090E+01
H    9.4417904719170433E+00    1.4085586770201036E+02    1.2387869746457939E+01
O    4.7458534407640371E+01    1.1965354737656062E+02    9.1963542148527893E+00
H    4.7040684084024228E+01    1.1950793651849389E+02    1.0089573361961028E+01
H    4.8406876115834585E+01    1.1938945614455686E+02    9.4182156936512431E+00
O    1.4515642740269636E+01    1.0929531247180653E+02   -5.4701966478850155E+00
H    1.5114169187056170E+01    1.0992277702698317E+02   -5.9843728857855005E+00
H    1.4747724875321660E+01    1.0933427821409816E+02   -4.5311505503820202E+00
O    1.4194253415927810E+02    1.3292633641155120E+02   -6.4639844901531163E+01
H    1.4186563141487505E+02    1.3386784882511211E+02   -6.4316168127833166E+01
H    1.4122258422242561E+02    1.3284230006954098E+02   -6.5272766644094432E+01
O    3.7252737383118607E+01    1.2630376189461636E+02   -3.0347944610380175E+01
H    3.7580667776924322E+01    1.2722169812965610E+02   -3.0226517505061675E+01
H    3.7435881837453294E+01    1.2573234231150037E+02   -2.9587111204785348E+01
O    7.4751036748747993E+01    1.3778508338747551E+02    2.8555400316721109E+01
H    7.4952730851624295E+01    1.3705066747146896E+02    2.9115532905331111E+01
H    7.5227662759289188E+01    1.3760243933947930E+02    2.7656684565164301E+01
O    8.6095086029432295E+01    1.3542758148159010E+02    6.9669072737426996E+00
H    8.6147386156736147E+01    1.3511963792000401E+02    7.9864809014290747E+00
H    8.5711711576418381E+01    1.3633304754912126E+02    6.8360646486831378E+00
O    4.4463374411018386E+01    1.5731491074465180E+02    5.3075617731193290E+01
H    4.3655860068557423E+01    1.5728115461098199E+02    5.3689771547752059E+01
H    4.4922031365330682E+01    1.5815984090414005E+02    5.3219005714661151E+01
O    1.6019275622160137E+01    1.3004938839814088E+02   -5.8770728656005433E-01
H    1.5933549996177643E+01    1.2901618713934226E+02   -6.8669299305876219E-01
H    1.6303085257591107E+01    1.3038098586292583E+02   -1.4870068791331668E+00
O    1.0823151857172151E+02    1.1305316137294872E+02    2.1812776548598627E+01
H    1.0740733023362958E+02    1.1348433982326740E+02    2.2132882494669854E+01
H    1.0894431354699859E+02    1.1353403633002307E+02    2.2248545535798055E+01
O    6.4955520976629401E+01    1.1937093568855207E+02   -1.3179855887997508E+01
H    6.5678936093245085E+01    1.1868483281380512E+02   -1.3216019686320893E+01
H    6.4521933414157189E+01    1.1926725907047174E+02   -1.2294803307762177E+01
O    8.8748309247060021E+01    1.3477410858723474E+02   -1.5549186292007011E+00
H    8.8129195371192182E+01    1.3537997183514599E+02   -1.0765383445493015E+00
H    8.8658593245248909E+01    1.3397325757519511E+02   -1.0288301986581450E+00
O    4.7428117788461179E+01    1.8308405396578513E+02    2.9981834275573089E+01
H    4.8212133543280977E+01    1.8338603464376516E+02    3.0551010577742133E+01
H    4.6810121738754297E+01    1.8288808803963528E+02    3.0677088335341672E+01
O    1.2260390099666073E+02    1.7250389929255567E+02    4.8650743648479960E+01
H    1.2324237547228053E+02    1.7315799408433907E+02    4.8350933279063767E+01
H    1.2313895171781525E+02    1.7177035827897112E+02    4.8993967387790775E+01
O    1.2622469144799828E+02    1.7737481384894068E+02   -8.1877084203757164E+01
H    1.2583333184103189E+02    1.7687777639249438E+02   -8.2637762994094459E+01
H    1.2693374140087975E+02    1.7673259666479302E+02   -8.1639634601885319E+01
O    2.8309344999680192E+01    1.4480320565146596E+02    1.6273812956353339E+01
H    2.8762406278057348E+01    1.4545981778740438E+02    1.5692811866148711E+01
H    2.8139882113919334E+01    1.4530536061298270E+02    1.7039152368883354E+01
O    9.3891021198566506E+01    1.0550282247197914E+02    5.8703502321373008E+01
H    9.3995318243169194E+01    1.0524570010466715E+02    5.9679467404895576E+01
H    9.4477773489944866E+01    1.0628351214816982E+02    5.8558357187147195E+01
O    1.1213022751343371E+02    1.5651027549838184E+02    3.3208280225508425E+01
H    1.1174505046177086E+02    1.5720983898472500E+02    3.3880552536478156E+01
H    1.1253773668234379E+02    1.5578361961538377E+02    3.3769343510692465E+01
O    6.5871852165071459E+01    1.5517715621911759E+02    7.6659632785137646E+00
H    6.6689337013859003E+01    1.5467226444977692E+02    7.8504684761933143E+00
H    6.5416206780373329E+01    1.5512641621691566E+02    8.5383971220122277E+00
O    3.8271396344139738E+01    9.4711811831230136E+01    4.1504492843876903E+01
H    3.7427981971072789E+01    9.4265840734526506E+01    4.1685671304905028E+01
H    3.8799523422438064E+01    9.4511595608811547E+01    4.2287330729907701E+01
O    8.4866541468516019E+01    1.1288977301265182E+02    9.4433442748616017E+00
H    8.5155529630141572E+01    1.1362638680130425E+02    1.0026148408401466E+01
H    8.5241343970495649E+01    1.1209029993732727E+02    9.8107342603134349E+00
O    8.6781415927668249E+01    1.2024404361713749E+02    3.0947022899342755E+01
H    8.6932081401651629E+01    1.2118376985980839E+02    3.0793612611775394E+01
H    8.7142509429920423E+01    1.2010371885313798E+02    3.1871852450366724E+01
O    7.9782377010083636E+01    1.2639942126820176E+02    5.1118894174739722E+01
H    7.9338384205368214E+01    1.2561368641588757E+02    5.1458894054726528E+01
H    8.0311133877665554E+01    1.2649360718668639E+02    5.1952596452783048E+01
O    1.7094537477358447E+01    8.3036809790444053E+01    5.3306038625802309E+01
H    1.6783925717553654E+01    8.3414280776186231E+01    5.2451695958695240E+01
H    1.6820512157341884E+01    8.3684550909105468E+01    5.4033180140912442E+01
O    1.1020960612769130E+02    1.7392186635140482E+02    9.4399911719801217E+00
H    1.1097994138848883E+02    1.7365325534435507E+02    9.9759773007103743E+00
H    1.1061342037478335E+02    1.7394247615750180E+02    8.5145865540858097E+00
O    5.8923664727009147E+01    1.7265108401182027E+02    5.7229954300692370E+01
H    5.8332821334892735E+01    1.7203254185857418E+02    5.7741410902150697E+01
H    5.9839342014489290E+01    1.7231933448074193E+02    5.7420566979259448E+01
O    7.5922270847850953E+01    8.8060528273826918E+01    1.4265716218086443E+01
H    7.5860904404524902E+01    8.7916810017489638E+01    1.5261830491957056E+01
H    7.5031713695719233E+01    8.7671333985949531E+01    1.4156099321423433E+01
O    8.6298439627054378E+01    1.1014053315235434E+02    7.3164696346725711E+00
H    8.6341123292200194E+01    1.0915485226026655E+02    7.2663367212948602E+00
H    8.5648950511631099E+01    1.1020621500888275E+02    8.0637170791032116E+00
O    1.2275640906028887E+02    1.3240232409659524E+02    7.8939814048628278E+01
H    1.2352815715565730E+02    1.3308109381293733E+02    7.8941676047830768E+01
H    1.2222012426653349E+02    1.3258119868445905E+02    7.9704628944707764E+01
O    7.3771963997173458E+01    1.7960583210814576E+02   -2.4814364850096993E+01
H    7.3307639428659570E+01    1.7912768077049952E+02   -2.4147065310179201E+01
H    7.4705294471769818E+01    1.7953136734411825E+02   -2.4545372477731839E+01
O    4.3605950954888719E+01    1.3149533191740895E+02    1.0062041808633959E+01
H    4.3289394135573893E+01    1.3087996218762788E+02    1.0764022628591551E+01
H    4.4542337016635102E+01    1.3130318938809177E+02    9.9168078247953542E+00
O    1.3029737268020622E+02    1.2467068028763427E+02   -3.8304210885564394E+00
H    1.3053011855402150E+02    1.2475875362567358E+02   -2.8658430797178549E+00
H    1.2966349314723917E+02    1.2394233396902149E+02   -3.8600546246371752E+00
O    6.9955012071075970E+01    9.7605987442378961E+01   -2.2196119320545726E+00
H    6.9121402630866257E+01    9.7394543128008223E+01   -1.7419772227270396E+00
H    7.0569088584503987E+01    9.7832198781458445E+01   -1.5383019875176971E+00
O    1.2920900311382360E+02    1.6507669521987631E+02    4.7232859324330519E+01
H    1.2987834637260002E+02    1.6489418991623484E+02    4.7908717250306481E+01
H    1.2850756042437277E+02    1.6443613820276821E+02    4.7548365694083550E+01
O    1.0443228836058555E+02    7.5728846000168502E+01    5.5215775534414767E+01
H    1.0471740158791019E+02    7.5347376220149272E+01    5.6022173407883542E+01
H    1.0490717499575190E+02    7.6571919897362221E+01    5.5039340859024634E+01
O    8.1025917686254516E+01    1.6069863564538329E+02   -2.8358203347302361E+01
H    8.1218197421083758E+01    1.6145604850999734E+02   -2.7735583840376673E+01
H    8.0093231080453876E+01    1.6062763360105060E+02   -2.8165830311063281E+01
O    4.5090975530178618E+01    1.0023917718228776E+02    1.9772879604467057E+01
H    4.4709328623302028E+01    9.9322602387298105E+01    1.9743040210548664E+01
H    4.4916584980154418E+01    1.0044664511132902E+02    2.0697372881078099E+01
O    1.3009058383869706E+02    1.5162502359435922E+02    1.9828691460462959E+01
H    1.2934562067223735E+02    1.5203902418088705E+02    1.9347799658275498E+01
H    1.3075905115902702E+02    1.5234621243097521E+02    2.0033232406070326E+01
O    1.7995589184926924E+01    1.4795313565806117E+02    4.2004132116082069E+01
H    1.7747768706619603E+01    1.4752354486819763E+02    4.2844539757278746E+01
H    1.8488539979342299E+01    1.4714709034811995E+02    4.1585021588049294E+01
O    1.0106698726006098E+02    7.0220283678922641E+01    3.0051827871405667E+01
H    1.0053930933751923E+02    7.0455565028494760E+01    3.0815299224062798E+01
H    1.0095570478797200E+02    7.1029060217018468E+01    2.9495791098009029E+01
O    7.2582195118276076E+01    1.6128174620119646E+02    1.4436157393197801E+01
H    7.2729028148002712E+01    1.6046491351971505E+02    1.5023986567181812E+01
H    7.2353007365341412E+01    1.6202570705391918E+02    1.4993025614268308E+01
O    2.0629625532837451E+01    1.2824647118100751E+02    2.0004028780284209E+01
H    1.9735419955431315E+01    1.2843982886832680E+02    1.9599931865706754E+01
H    2.0598560693856506E+01    1.2882157922758154E+02    2.0841406885780867E+01
O    1.0460436785064383E+02    1.2794986138573017E+02    1.0136228350207123E+01
H    1.0389079612890015E+02    1.2752409202252107E+02    9.5798006624348790E+00
H    1.0522861444297925E+02    1.2721092246241651E+02    1.0398574455853009E+01
O    1.0010726691274364E+02    1.4918569842805670E+02    5.3133578732486100E+01
H    1.0070317279569016E+02    1.4984575191918901E+02    5.3493363458222717E+01
H    9.9268321469010957E+01    1.4922916106542479E+02    5.3708682397577988E+01
O    1.6476549825477861E+02    1.8881823409988363E+02    1.2237924722566980E+02
H    1.6408970870186687E+02    1.8835726247749963E+02    1.2295667652354879E+02
H    1.6460245721025760E+02    1.8975612600940906E+02    1.2263779884418059E+02
O    1.5800491726626626E+02    1.2234605668766953E+02    5.6712538824492299E+01
H    1.5737665699448485E+02    1.2298738956619763E+02    5.6325779062643811E+01
H    1.5770686677344645E+02    1.2143922409817415E+02    5.6499735392213744E+01
O    3.8263948731697084E+01    1.4464207071583826E+02    4.7882851668800640E+01
H    3.8806961355013804E+01    1.4481315063614900E+02    4.8728767990702018E+01
H    3.7473655431239088E+01    1.4524764740008231E+02    4.8030436679534269E+01
O    4.6265413657219348E+01    1.4495004690642665E+02    2.5691514210110764E+01
H    4.6799427430596907E+01    1.4417590610576696E+02    2.5406243489412013E+01
H    4.5690815360137805E+01    1.4457929464876071E+02    2.6382053155395123E+01
O    6.8971252417776682E+01    1.0808279109888406E+02   -1.3512500627056326E+01
H    6.8435469851917944E+01    1.0740391383820393E+02   -1.3850221180079190E+01
H    6.9301470405016119E+01    1.0772109084506870E+02   -1.2662567613163784E+01
O    8.8712890556087217E+01    1.2126502407212404E+02    1.7662812350168991E+01
H    8.8552303125974021E+01    1.2225058819347781E+02    1.7796032765327947E+01
H    8.9691315778005617E+01    1.2108198980681556E+02    1.7749155608444742E+01
O    1.3645601475068136E+02    1.2546706646210598E+02    3.9085116467021770E+01
H    1.3664903420911932E+02    1.2570208715638880E+02    4.0031735255840168E+01
H    1.3553997857545536E+02    1.2579825435914164E+02    3.9046045252076532E+01
O    6.9815165148618846E+01    1.3766201918076058E+02    6.7239697148366972E+01
H    7.0558929009738904E+01    1.3705077281373045E+02    6.7111912824025325E+01
H    7.0091869486165876E+01    1.3814512165215811E+02    6.8022923546978959E+01
O    6.4347614437698454E+01    9.0935794018730661E+01   -9.9957757139493157E+00
H    6.4741522378051684E+01    9.1325146999228949E+01   -9.1940085495100679E+00
H    6.3618587795178712E+01    9.1539635764051170E+01   -1.0118201027804574E+01
O    6.1261204042710069E+01    2.1668682781600475E+02    8.0412984311195110E+00
H    6.1035632816334989E+01    2.1608971698147371E+02    8.8138893100541775E+00
H    6.0979781418849548E+01    2.1753689142670234E+02    8.3904636378687112E+00
O    8.3013477403570135E+01    1.2006400798327662E+02    3.8959680853425048E+01
H    8.2383410830374601E+01    1.1955125052314750E+02    3.9550516989506313E+01
H    8.2437867780002478E+01    1.2004059836657744E+02    3.8176143088126494E+01
O    9.9526519445733783E+01    2.1636404075578292E+02   -3.8151700500505306E+01
H    9.9242633902004840E+01    2.1544504521684115E+02   -3.8319129361552235E+01
H    1.0003515235263475E+02    2.1616951133297943E+02   -3.7288824324830379E+01
O    1.1384898886503517E+02    1.1610882474402503E+02   -1.1588835729469926E+01
H    1.1442268204737316E+02    1.1550991997458381E+02   -1.1027963130120218E+01
H    1.1346233709366537E+02    1.1680031627664782E+02   -1.0977429458275008E+01
O    1.4009480190732819E+02    1.6628624297164259E+02   -1.4497849271478469E+01
H    1.4100274439102535E+02    1.6616952347877572E+02   -1.4169772724130855E+01
H    1.3962029490285536E+02    1.6673904269210917E+02   -1.3763612015206011E+01
O    9.1123304870893747E+01    1.1533474326135327E+02    7.6458566036233194E+01
H    9.1382253988649012E+01    1.1593351511537638E+02    7.7155719507024472E+01
H    9.0220052762888173E+01    1.1520071705568800E+02    7.6742897126043204E+01
O    6.7444487222112073E+01    1.6144446678896614E+02   -2.0794118234610441E+00
H    6.7086104063946934E+01    1.6228828540122288E+02   -2.3659221968995405E+00
H    6.7281256305057241E+01    1.6151317418712023E+02   -1.0710318017694873E+00
O    6.6086195927647552E+01    1.6512783947711409E+02   -2.5626028774662306E+01
H    6.5204136567583078E+01    1.6550487001520546E+02   -2.5746213856430629E+01
H    6.6671494683236034E+01    1.6577344991272679E+02   -2.6110184576092422E+01
O    8.2570465075036111E+01    8.3646045530035735E+01    4.0624367798573886E+01
H    8.3178349340349911E+01    8.4468811857770547E+01    4.0780362212866947E+01
H    8.3175304723886796E+01    8.2998939551221696E+01    4.1045279398649953E+01
O    1.5119009769099077E+02    1.4718927176866592E+02    5.1049975004193463E+01
H    1.5021181858225174E+02    1.4707100221639294E+02    5.1211093249347385E+01
H    1.5147978727017346E+02    1.4766175740677812E+02    5.1861769643708556E+01
O    5.5423670111250594E+01    8.2537276594052202E+01    7.3989097767681073E+00
H    5.5780022075587318E+01    8.3157968967714027E+01    8.0230447931913549E+00
H    5.4573215772768478E+01    8.2280322187218161E+01    7.8270897608954497E+00
O    7.2292544726246277E+01    1.3179287781554538E+02    5.5734072198095788E+01
H    7.1742847369787839E+01    1.3260928616274165E+02    5.5809523440935443E+01
H    7.3084610493550088E+01    1.3189658651896193E+02    5.6355798397925327E+01
O    8.2341795637884175E+01    1.7980317165057929E+02    1.3275224049517371E+01
H    8.2657073679443400E+01    1.8004687208354446E+02    1.4184558648988880E+01
H    8.1339540166151124E+01    1.7976581040082849E+02    1.3341333388431078E+01
O    9.6883851208133706E+01    9.7311111319035405E+01    1.2568633112695121E+01
H    9.6344069334104148E+01    9.7131501238938554E+01    1.3360204860718261E+01
H    9.7707145153153192E+01    9.7812522979678690E+01    1.3025790726957052E+01
O    9.2362881723953677E+01    1.0182570876146806E+02    7.4627895015403894E+01
H    9.1945670576886684E+01    1.0099713076772541E+02    7.4922843610456724E+01
H    9.2082542263645024E+01    1.0255459156812142E+02    7.5236435239817041E+01
O    5.0976180953322086E+01    1.2735579556607728E+02    3.9997967441891653E+01
H    5.1852996301102777E+01    1.2778480498620446E+02    4.0236986581929152E+01
H    5.0619177198318340E+01    1.2720036144397781E+02    4.0899573273083540E+01
O    7.0788992141357312E+01    1.1865478627129603E+02   -6.2016103960539368E+00
H    7.1285857997258319E+01    1.1898402338774888E+02   -5.4166023381765971E+00
H    6.9917678228125538E+01    1.1826898882527678E+02   -5.8530277637818378E+00
O    2.9444721486897979E+01    1.2869865456073376E+02    4.3620963658720626E+01
H    2.9449171241806340E+01    1.2954929016644891E+02    4.4026869007868953E+01
H    2.8759683247930898E+01    1.2825712661267812E+02    4.4105983356179202E+01
O    7.0512389839237557E+01    1.6991187358285003E+02    2.2810034427004858E+01
H    6.9674684567622876E+01    1.6963330647640686E+02    2.3264230385625758E+01
H    7.1306464096892114E+01    1.6961989003050732E+02    2.3366364056786637E+01
O    9.6387923361850582E+01    1.1072040285686218E+02    3.8027443480494917E+01
H    9.6641119563837563E+01    1.0978745781034533E+02    3.8202679068351799E+01
H    9.7197164956867795E+01    1.1111312513388766E+02    3.8433435029755451E+01
O    5.6209183564566352E+01    1.6723784064178761E+02    4.1102977559809091E+00
H    5.6702977622925765E+01    1.6711545085481740E+02    4.9731869792506238E+00
H    5.6875682203837506E+01    1.6762528132995800E+02    3.4173470038646645E+00
O    1.0378929975545442E+02    6.1321557620602015E+01    5.0256674064642318E+01
H    1.0305337199532057E+02    6.1454937659453542E+01    5.0840960174476827E+01
H    1.0422180299038591E+02    6.2208275073878490E+01    5.0263071833608322E+01
O    1.0562272564506979E+02    1.4235888020173229E+02   -1.1913610668054456E+01
H    1.0613756496182852E+02    1.4185610818844970E+02   -1.2608621947254877E+01
H    1.0601050002829091E+02    1.4202619130970481E+02   -1.1068011000409056E+01
O    5.9892749297317067E+01    1.9878618256424247E+02   -1.2868022088614453E+01
H    5.9521028623588343E+01    1.9786930979912509E+02   -1.2754669285651168E+01
H    5.9850540676956584E+01    1.9914254392164892E+02   -1.1941089011424232E+01
O    9.1519199366565303E+01    1.5262708169939137E+02    1.0186031269507435E+01
H    9.1358403874033101E+01    1.5169520611775260E+02    9.9527416233956618E+00
H    9.2330600034829004E+01    1.5257737800409029E+02    1.0713432815084545E+01
O    4.7897405803835987E+01    1.3979948834954288E+02    7.5893171459119273E+01
H    4.8584832274410516E+01    1.3927806956679242E+02    7.5401509193585994E+01
H    4.8215845638165597E+01    1.4071720572687238E+02    7.6054833103913097E+01
O    8.0464903683732231E+01    1.3697571599342933E+02   -1.4987376996342917E+01
H    8.0306488159191730E+01    1.3637753744394098E+02   -1.4208637148490208E+01
H    8.0045121461539310E+01    1.3789864411206267E+02   -1.4995404068762296E+01
O    7.9220061887867402E+01    1.9443281761909424E+02    4.0185991043930800E+00
H    7.8228821720403914E+01    1.9440635634381309E+02    3.9439914516660268E+00
H    7.9459082059280064E+01    1.9536404146940868E+02    4.1625452612199405E+00
O    7.7511133884518600E+01    1.9000624397388398E+02    6.3522676135217758E+01
H    7.7936794766298107E+01    1.9033018208579085E+02    6.4351544270670246E+01
H    7.6839311385505638E+01    1.9066269347212963E+02    6.3377928340357286E+01
O    6.2479285449852831E+01    1.2846381898059786E+02    3.4848424736576590E+01
H    6.1669766126902886E+01    1.2848116024729194E+02    3.5399578528461731E+01
H    6.2829537891695843E+01    1.2766542835991984E+02    3.5256647395555582E+01
O    4.5273716922946079E+01    1.3239098171804329E+02    6.9271235115320371E+00
H    4.5964249070580472E+01    1.3210635477156242E+02    7.6004250424252886E+00
H    4.5594607590003278E+01    1.3327724595230939E+02    6.7684837061801515E+00
O    9.7470835005035028E+01    1.8266907689998357E+02    7.5123683975128955E+01
H    9.8408463298627638E+01    1.8268213668591099E+02    7.5505525603957139E+01
H    9.6935588922741900E+01    1.8199923534682918E+02    7.5603319573403695E+01
O    7.3033465372873721E+01    2.1368565837681652E+02    6.6704109304625332E+00
H    7.3265805461348378E+01    2.1274632167079079E+02    6.4400260673413472E+00
H    7.2034578214064226E+01    2.1370933219496433E+02    6.8905757689205211E+00
O    8.8345728038473524E+01    1.4331932462717327E+02    3.1761742263881775E+01
H    8.9297921380341151E+01    1.4351442562019426E+02    3.1901406552997617E+01
H    8.8037718094883175E+01    1.4344941428354790E+02    3.2696923005494916E+01
O    1.2633559956163634E+02    1.6672639830840154E+02    2.0595669138050063E+01
H    1.2671372449612899E+02    1.6761137416920920E+02    2.0645004778606445E+01
H    1.2561715868989836E+02    1.6664188211451267E+02    2.1258683088419176E+01
O    1.4567537674170330E+01    1.0775582234851561E+02   -4.4119685992996736E+01
H    1.4173813305615271E+01    1.0690911897225449E+02   -4.4387745444998941E+01
H    1.5116180473542785E+01    1.0802581136793872E+02   -4.4915331372625872E+01
O    1.0363036147184062E+02    2.1080073204681869E+02    3.1208096560142149E+01
H    1.0366514077299172E+02    2.1103721234605135E+02    3.2143395462616219E+01