 # Version information for this restart file 
 # current date 2024-09-02 12:07:09.042
 # current working dir /mnt/lustre/a2fs-work2/work/e05/e05/cmmp_kj/testing_cp2k_apt_time_indep/cp2k/cp2k-2023.1/testing_apt_ext/timeindeptest
 # Program compiled at                              Mon  2 Sep 11:10:18 BST 2024
 # Program compiled on                                                      ln04
 # Program compiled for                                                  ARCHER2
 # Source code revision number                                       git:b888bd8
 &GLOBAL
   PRINT_LEVEL  LOW
   PROJECT_NAME trying_md
   RUN_TYPE  MD
 &END GLOBAL
 &MOTION
   &MD
     ENSEMBLE  NVE
     STEPS  100
     TIMESTEP     9.9999999999999989E-01
     STEP_START_VAL  80
     TIME_START_VAL     8.0000000000000057E+01
     ECONS_START_VAL    -2.2101082427165820E+03
     TEMPERATURE     3.0000000000000000E+02
     &AVERAGES  T
       &RESTART_AVERAGES
         ITIMES_START  1
         AVECPU     8.5393810383975488E-01
         AVEHUGONIOT     0.0000000000000000E+00
         AVETEMP_BARO     0.0000000000000000E+00
         AVEPOT    -2.2106248399130918E+03
         AVEKIN     5.1658514262433486E-01
         AVETEMP     2.8394167367117745E+02
         AVEKIN_QM     0.0000000000000000E+00
         AVETEMP_QM     0.0000000000000000E+00
         AVEVOL     2.5929640507955100E+04
         AVECELL_A     2.9598213501547953E+01
         AVECELL_B     2.9598213501547953E+01
         AVECELL_C     2.9598213501547953E+01
         AVEALPHA     9.0000000000000000E+01
         AVEBETA     9.0000000000000000E+01
         AVEGAMMA     9.0000000000000000E+01
         AVE_ECONS    -9.6860739451757084E-03
         AVE_PRESS     0.0000000000000000E+00
         AVE_PXX     0.0000000000000000E+00
       &END RESTART_AVERAGES
     &END AVERAGES
     &PRINT
       &CENTER_OF_MASS  SILENT
         &EACH
           MD  1
         &END EACH
       &END CENTER_OF_MASS
     &END PRINT
   &END MD
   &PRINT
     &TRAJECTORY  SILENT
       UNIT angstrom
       FORMAT  XMOL
       &EACH
         MD  1
       &END EACH
     &END TRAJECTORY
     &VELOCITIES  ON
     &END VELOCITIES
     &FORCES  ON
     &END FORCES
     &RESTART_HISTORY  SILENT
       &EACH
         MD  10000
       &END EACH
     &END RESTART_HISTORY
   &END PRINT
 &END MOTION
 &MULTIPLE_FORCE_EVALS
   FORCE_EVAL_ORDER  1..3
   MULTIPLE_SUBSYS  T
 &END MULTIPLE_FORCE_EVALS
 &FORCE_EVAL
   METHOD  MIXED
   &MIXED
     MIXING_TYPE  GENMIX
     NGROUPS  1
     &GENERIC
       MIXING_FUNCTION a+b
       VARIABLES a b
     &END GENERIC
   &END MIXED
   &SUBSYS
     &CELL
       A     1.5662700000000001E+01    0.0000000000000000E+00    0.0000000000000000E+00
       B     0.0000000000000000E+00    1.5662700000000001E+01    0.0000000000000000E+00
       C     0.0000000000000000E+00    0.0000000000000000E+00    1.5662700000000001E+01
       MULTIPLE_UNIT_CELL  1 1 1
     &END CELL
     &COORD
O    5.8986511576260114E+01    6.7040129751025873E+01   -3.9743037353750751E+01
H    5.8311159377547789E+01    6.6411736027999623E+01   -3.9558704101700094E+01
H    5.9133454590136758E+01    6.7424995494804108E+01   -3.8833777285357648E+01
O    7.0395686619027160E+01    1.0002903022946251E+02    6.8253492900121543E+01
H    6.9760771389463244E+01    1.0074500929946562E+02    6.8406609758771140E+01
H    7.0401300803551038E+01    9.9493785701577210E+01    6.9049549823216793E+01
O    5.7405278053339202E+01    1.0928153058821900E+02    1.5821040502580464E+01
H    5.8105175494481465E+01    1.0918655802274642E+02    1.6526992506557480E+01
H    5.7169546880550151E+01    1.1025275674113038E+02    1.5883132989339241E+01
O    1.7265080241938529E+02    1.0019512147081404E+02    5.5686426862702874E+01
H    1.7328315792016267E+02    1.0054390648428793E+02    5.6390722181743058E+01
H    1.7228354418249239E+02    9.9384112874400657E+01    5.6101455785186936E+01
O    9.5584496723949130E+01    8.5058339819339380E+01   -1.4587001525827651E+01
H    9.5378916051157333E+01    8.5155187706691450E+01   -1.3637662417464371E+01
H    9.5066949358444688E+01    8.4295553087566404E+01   -1.4882513536154882E+01
O    8.3408853846644092E+01    1.3703166915582349E+02   -1.5195648579332849E+01
H    8.2497637615001707E+01    1.3675424787504286E+02   -1.5356394035254436E+01
H    8.3713328868344689E+01    1.3641423794215140E+02   -1.4536735774544630E+01
O    9.5320341554736832E+00    1.6934579226705324E+02    1.1040787033000433E+01
H    9.9309265872068391E+00    1.6844732849926888E+02    1.1174553527485553E+01
H    9.7614391484519381E+00    1.6992820651130742E+02    1.1778307555245265E+01
O    3.9593314455812333E+01    1.5449965993809775E+02    8.3401974019815354E-03
H    4.0333897158874272E+01    1.5519219077018366E+02    1.2458981024854285E-01
H    3.8910522414326813E+01    1.5459602825576681E+02    6.9953929000170845E-01
O    1.0113165682081063E+02    1.6104071012080945E+02    3.5580490536317995E+00
H    1.0032494583947766E+02    1.6042742769737777E+02    3.8376650771623328E+00
H    1.0115592360077976E+02    1.6176118112268281E+02    4.2210877545789822E+00
O    9.0275338737737130E+01    2.2362619214591527E+02    5.0236043574675172E+01
H    8.9449394680555812E+01    2.2408409727781452E+02    5.0610578529577481E+01
H    9.0347711379997349E+01    2.2274377075301635E+02    5.0678827506495963E+01
O    7.4531634910838491E+01    1.6488492081330332E+02   -1.2609904704235360E+01
H    7.3620274935029926E+01    1.6459526522149878E+02   -1.2383422566945120E+01
H    7.5130393714048125E+01    1.6417885388618237E+02   -1.2179336773533752E+01
O    4.3966632420988113E+01    8.9527100212270085E+01   -9.7398403943419378E+00
H    4.4225325783898214E+01    9.0311245496220693E+01   -9.2322718381157554E+00
H    4.3027558911074635E+01    8.9380592035162152E+01   -9.3956404929451480E+00
O    8.5711251316729804E+00    1.9632119725141351E+02    1.8033384201747623E+01
H    7.6805503134011639E+00    1.9621073735986027E+02    1.8255861748048435E+01
H    8.9710524802022569E+00    1.9688874034440283E+02    1.8742662748163831E+01
O    9.8281293734502526E+01    2.2389270363410185E+02    6.4331363236793457E+00
H    9.7285490086496793E+01    2.2392608593558779E+02    6.3766771225749066E+00
H    9.8390002302865867E+01    2.2433684914171874E+02    7.3332555305479072E+00
O    5.3232691049674983E+01    1.2478349576570925E+02   -1.3537385306409306E+00
H    5.3102037336069230E+01    1.2553950719968245E+02   -7.5996135399925857E-01
H    5.3870281516422786E+01    1.2416898476063304E+02   -9.3720594135584978E-01
O    8.9995497797465617E+01    1.7417590388740547E+02   -1.7822284863667942E+01
H    9.0444226673045463E+01    1.7365676132074694E+02   -1.7133227140123978E+01
H    8.9727060902451228E+01    1.7358705078979247E+02   -1.8607172148883532E+01
O    4.5121453666807497E+01    1.0911200244805731E+02    2.8704003563831602E+01
H    4.4510433096478394E+01    1.0835400328270670E+02    2.8933523388731693E+01
H    4.5931592620868045E+01    1.0860573317646872E+02    2.8885097660822954E+01
O    5.0582833084650012E+01    1.7009232282652985E+02    1.9208061479939040E+01
H    5.1116914842766398E+01    1.7084592944421880E+02    1.9726625546309922E+01
H    5.0042371817641481E+01    1.6984254942067682E+02    2.0004302387922468E+01
O    9.9837862532558901E+01    1.2049529187374591E+02    2.8813109523023961E+01
H    9.9919747863053018E+01    1.2080089232008207E+02    2.9747715952049372E+01
H    1.0011281245425528E+02    1.2133450787477793E+02    2.8254641146415089E+01
O    6.9394977762773507E+01    1.0681537434280891E+02    1.0519700767352758E+02
H    6.9327730571554014E+01    1.0772800091370576E+02    1.0549674412493327E+02
H    7.0315562169397793E+01    1.0672137646320323E+02    1.0500513739664699E+02
O    3.1750214539368059E+01    1.2384510560833083E+02    1.6439924872313643E+01
H    3.2372533609402339E+01    1.2459976943881026E+02    1.6569970222618952E+01
H    3.1454965346556939E+01    1.2387823318263941E+02    1.5518132021383726E+01
O    3.5314088314243293E+01    1.1391963048282854E+02   -4.6580492247003825E+01
H    3.4640637326328807E+01    1.1420767137365840E+02   -4.5945252986964149E+01
H    3.4973364799832979E+01    1.1298679460992415E+02   -4.6738160269552985E+01
O    7.2681569195625997E+01    1.5099750517922109E+02    5.8213548284564538E+01
H    7.2794263744894693E+01    1.5055039352759084E+02    5.9146758962348741E+01
H    7.3431338133354359E+01    1.5060269811055227E+02    5.7766665286743695E+01
O    1.0293817268337031E+01    1.4024260728569823E+02    1.2436370612443749E+01
H    1.0533441051976709E+01    1.4002949046255409E+02    1.3356266426382756E+01
H    9.5125467696518538E+00    1.4090378587374317E+02    1.2504742854500675E+01
O    4.7441960180015805E+01    1.1972278587393146E+02    9.1562594265912445E+00
H    4.7001925231501367E+01    1.1953482642079366E+02    9.9633913822188713E+00
H    4.8302363110003064E+01    1.1920522547259917E+02    9.2756259057993873E+00
O    1.4507439956563163E+01    1.0924971134512943E+02   -5.6210508006775965E+00
H    1.5109782252170987E+01    1.1006664915042641E+02   -5.8038197165887766E+00
H    1.4478376554355179E+01    1.0902477992959675E+02   -4.6472360569023783E+00
O    1.4193098727168649E+02    1.3287619720429606E+02   -6.4626446616397260E+01
H    1.4159005732039444E+02    1.3369029086143993E+02   -6.4257052352580772E+01
H    1.4132364184932632E+02    1.3268280408590263E+02   -6.5372393674719746E+01
O    3.7320622746321838E+01    1.2625029522961479E+02   -3.0344224124327710E+01
H    3.7759490693812907E+01    1.2712700578246776E+02   -3.0177060597200622E+01
H    3.7241567032553270E+01    1.2570664135437576E+02   -2.9550475741111672E+01
O    7.4858066473378500E+01    1.3785392441190720E+02    2.8790366126797210E+01
H    7.5331592868862074E+01    1.3706906635514042E+02    2.9142979676737124E+01
H    7.4804242081896078E+01    1.3772605889419054E+02    2.7783938864360113E+01
O    8.6154337774279483E+01    1.3541311187707072E+02    6.9850816187894491E+00
H    8.6085273484347695E+01    1.3492517600513497E+02    7.9365588337013611E+00
H    8.5854792769968796E+01    1.3631298953205931E+02    6.9172497188783959E+00
O    4.4596860932605466E+01    1.5726585104340481E+02    5.2924225099010137E+01
H    4.4072736915875048E+01    1.5708943308068984E+02    5.3752601347071064E+01
H    4.4970771763213975E+01    1.5821400670943254E+02    5.3038731003169808E+01
O    1.6001489283692454E+01    1.3004892014485205E+02   -5.6025578025843648E-01
H    1.6080261969156695E+01    1.2907505488882467E+02   -7.1398183983020935E-01
H    1.6162555088245458E+01    1.3043934747958278E+02   -1.4393885294980573E+00
O    1.0823584299486021E+02    1.1301548104837885E+02    2.1793939235121503E+01
H    1.0757274785018957E+02    1.1357134760244197E+02    2.2236566233081458E+01
H    1.0910032432478151E+02    1.1350477696060864E+02    2.1878347764194480E+01
O    6.4915822343012266E+01    1.1932522114047798E+02   -1.3134402472167245E+01
H    6.5587837855111758E+01    1.1869200867969440E+02   -1.3148857359453766E+01
H    6.4549083011041503E+01    1.1932274008347453E+02   -1.2208405724325777E+01
O    8.8851778290804461E+01    1.3479477842646813E+02   -1.6301698332966872E+00
H    8.8055536880148168E+01    1.3528890883375323E+02   -1.2640694970902777E+00
H    8.8723772764878575E+01    1.3390780592836407E+02   -1.2817032855253478E+00
O    4.7420280994017318E+01    1.8313287175355154E+02    2.9915467040693621E+01
H    4.8167481906972519E+01    1.8347957917126811E+02    3.0472664834513989E+01
H    4.6784811119719443E+01    1.8297583491422807E+02    3.0643951085908913E+01
O    1.2253885607304031E+02    1.7263483377059106E+02    4.8586753745725652E+01
H    1.2330999746934222E+02    1.7309060498202672E+02    4.8221188088785567E+01
H    1.2285844802459759E+02    1.7184089549915208E+02    4.9070927110217440E+01
O    1.2621576009017954E+02    1.7742004503807149E+02   -8.1875767389595026E+01
H    1.2562955852099628E+02    1.7725012133173175E+02   -8.2602362275112611E+01
H    1.2695558471482856E+02    1.7683071361316311E+02   -8.2055058927195546E+01
O    2.8326586660487067E+01    1.4487669135990257E+02    1.6422919906564207E+01
H    2.8498610746640828E+01    1.4584341935767833E+02    1.6203277288301887E+01
H    2.8063704252171618E+01    1.4505331608906192E+02    1.7304813462899087E+01
O    9.3834748515930599E+01    1.0552557287660247E+02    5.8589496504063732E+01
H    9.3928250901217766E+01    1.0537014961694410E+02    5.9592331719635226E+01
H    9.4720022380209457E+01    1.0590139893997632E+02    5.8302257898032870E+01
O    1.1208898289569623E+02    1.5659375242397869E+02    3.3250706040722243E+01
H    1.1191402865501709E+02    1.5716730062805993E+02    3.4097294244398995E+01
H    1.1249513279108149E+02    1.5575571837352825E+02    3.3545938839121170E+01
O    6.5829400237512942E+01    1.5511043732012459E+02    7.6598291107630647E+00
H    6.6562269509254762E+01    1.5481598017229896E+02    8.2388900180732403E+00
H    6.5068361734034326E+01    1.5507037741215362E+02    8.2160073934402167E+00
O    3.8264849266080510E+01    9.4670096433857182E+01    4.1334425319132059E+01
H    3.7470819289348732E+01    9.4403249479037953E+01    4.1813031819921903E+01
H    3.8877191276876538E+01    9.4806724204433692E+01    4.2078330079447277E+01
O    8.4818860360078148E+01    1.1302255132858116E+02    9.4573988784461012E+00
H    8.5148380925215307E+01    1.1365617564011056E+02    1.0126560525536652E+01
H    8.4922814011816527E+01    1.1213620577656948E+02    9.7816150493993881E+00
O    8.6725471980527033E+01    1.2017958883518159E+02    3.0918259233144667E+01
H    8.6684108038806045E+01    1.2114666389955622E+02    3.1172493656992661E+01
H    8.6637108662705955E+01    1.1963092722158601E+02    3.1700560707630952E+01
O    7.9892619058588011E+01    1.2641078654354489E+02    5.1147297327503615E+01
H    7.9357388094853519E+01    1.2563997018860746E+02    5.1423626217413045E+01
H    8.0174112318001377E+01    1.2662410203842087E+02    5.2084312678720856E+01
O    1.7108040749335313E+01    8.2999487139426279E+01    5.3323580208845847E+01
H    1.7143165720277892E+01    8.3599274290168154E+01    5.2573541670384003E+01
H    1.7067382461192025E+01    8.3548791530634233E+01    5.4168683163058638E+01
O    1.1029745311231794E+02    1.7402044421191044E+02    9.5412636226105896E+00
H    1.1094289092887972E+02    1.7385176020587133E+02    1.0227187375455092E+01
H    1.1085245550088457E+02    1.7392950552557360E+02    8.7416845743515932E+00
O    5.8864221291013529E+01    1.7261525439052096E+02    5.7308123797662688E+01
H    5.8844827963582631E+01    1.7200258511876356E+02    5.8113280306104414E+01
H    5.9813504396098907E+01    1.7254169681814483E+02    5.7070098049529051E+01
O    7.5915774615745406E+01    8.8004906885235599E+01    1.4312656988411241E+01
H    7.6328164970812978E+01    8.7917850581653752E+01    1.5178640533668913E+01
H    7.5030790384827284E+01    8.8197899054966726E+01    1.4644281022524154E+01
O    8.6412738774636210E+01    1.1024002118582172E+02    7.3154078855005693E+00
H    8.6321025560765960E+01    1.0926177144504435E+02    7.3023643532202511E+00
H    8.5844213361146330E+01    1.1044122586111382E+02    8.1248383215452353E+00
O    1.2275036433756539E+02    1.3246069265242249E+02    7.8870163708300637E+01
H    1.2356938847584610E+02    1.3292503613915699E+02    7.9201426661486209E+01
H    1.2197569605953809E+02    1.3274849791682266E+02    7.9396000622014967E+01
O    7.3796044656348485E+01    1.7966110249121061E+02   -2.4869964316372652E+01
H    7.3149697986346538E+01    1.7938933200328782E+02   -2.4204911881414688E+01
H    7.4641400823703080E+01    1.7928040609453035E+02   -2.4547930439271809E+01
O    4.3659418208134504E+01    1.3138283132880960E+02    9.9075644954086126E+00
H    4.3255782643531305E+01    1.3150220219328483E+02    1.0754030922836542E+01
H    4.4657013572162221E+01    1.3139347317768980E+02    1.0081037550564155E+01
O    1.3026427579958727E+02    1.2465772115730316E+02   -3.7087660652805705E+00
H    1.3062305084605302E+02    1.2467749096434017E+02   -2.7736587546185265E+00
H    1.2959782929257162E+02    1.2396143785963366E+02   -3.6656062777286960E+00
O    6.9994372126128937E+01    9.7527292543382018E+01   -2.2147263208519923E+00
H    6.9122121742872878E+01    9.7700513526566951E+01   -1.8489215409051700E+00
H    7.0568785601245551E+01    9.8047571439396620E+01   -1.6491809545084946E+00
O    1.2923074229820878E+02    1.6507162769213028E+02    4.7187219299384466E+01
H    1.2973850757319249E+02    1.6492727178020931E+02    4.8017280926330663E+01
H    1.2836031671676523E+02    1.6463621500957979E+02    4.7418928967899973E+01
O    1.0448517697108986E+02    7.5769881144619632E+01    5.5224008429704035E+01
H    1.0449367459982304E+02    7.5796573773993558E+01    5.6217092031579611E+01
H    1.0470686986622425E+02    7.6676837646465401E+01    5.4941858997281919E+01
O    8.1078878675339695E+01    1.6058037643551839E+02   -2.8303834691611282E+01
H    8.1039423444273240E+01    1.6150662129140710E+02   -2.8090423315201928E+01
H    8.0176392438328776E+01    1.6038540806687467E+02   -2.7970619203191859E+01
O    4.5109083854155578E+01    1.0036495600274704E+02    1.9796148157281412E+01
H    4.4637682446177692E+01    9.9563750956129581E+01    1.9443045651960023E+01
H    4.5049201044518306E+01    1.0018418061428299E+02    2.0784755794935254E+01
O    1.3022246642825769E+02    1.5153691137525252E+02    1.9850106387620659E+01
H    1.2948769411655712E+02    1.5192722622570346E+02    1.9273842172778366E+01
H    1.3095585230582688E+02    1.5219945435381217E+02    1.9928534421551035E+01
O    1.7969625659527033E+01    1.4797630958150668E+02    4.2005004151594690E+01
H    1.7434011884368338E+01    1.4756712510184917E+02    4.2727565478127701E+01
H    1.8504981837235004E+01    1.4719319946739981E+02    4.1792917058066628E+01
O    1.0117645857093662E+02    7.0243116293754383E+01    3.0018360924681431E+01
H    1.0053522584289568E+02    7.0571572049431467E+01    3.0706365153473630E+01
H    1.0107070080293487E+02    7.0949642010334671E+01    2.9336719271316177E+01
O    7.2682201576287824E+01    1.6125351391085348E+02    1.4375916753100951E+01
H    7.2508123781899670E+01    1.6055665921165323E+02    1.5070336342518017E+01
H    7.2596668091719692E+01    1.6213315846315430E+02    1.4815388102006740E+01
O    2.0648608069985329E+01    1.2824084063051822E+02    2.0022748926194531E+01
H    1.9922500157803103E+01    1.2856302752037948E+02    1.9406766495076791E+01
H    2.0340732246763228E+01    1.2861046353369582E+02    2.0919222533172103E+01
O    1.0446211647457001E+02    1.2791435919255022E+02    1.0048220633692372E+01
H    1.0360135169943462E+02    1.2762436146856889E+02    9.6496918823784359E+00
H    1.0496669255451422E+02    1.2709143595470763E+02    1.0279995122906346E+01
O    1.0014974715435349E+02    1.4919386469144811E+02    5.3097080929608659E+01
H    1.0071001906674846E+02    1.4998132041239481E+02    5.3147076467529388E+01
H    9.9629981210138553E+01    1.4923241319879131E+02    5.3889401365418486E+01
O    1.6479309445562970E+02    1.8890839624593855E+02    1.2230841131615750E+02
H    1.6415289262959533E+02    1.8849651953750086E+02    1.2294107371015298E+02
H    1.6474985381316012E+02    1.8985731979638430E+02    1.2257960883579413E+02
O    1.5808609955019961E+02    1.2238434282966195E+02    5.6618242938624277E+01
H    1.5724840183595236E+02    1.2280765628139349E+02    5.6645388117548386E+01
H    1.5795107215358439E+02    1.2144387996950670E+02    5.6367404373429302E+01
O    3.8236768088910345E+01    1.4470112104326361E+02    4.8023620455150954E+01
H    3.8506576111261900E+01    1.4514448251812465E+02    4.8852647555739530E+01
H    3.7336969564431470E+01    1.4512075175647342E+02    4.7877830579217147E+01
O    4.6344804288115455E+01    1.4493285606891988E+02    2.5660646662592868E+01
H    4.6714833023089149E+01    1.4402170867474160E+02    2.5474009886772183E+01
H    4.5713739626132323E+01    1.4480460533005353E+02    2.6378751676701579E+01
O    6.9079594391396796E+01    1.0809366268750337E+02   -1.3444826857641575E+01
H    6.8343159449394179E+01    1.0772382984762288E+02   -1.3891456881254795E+01
H    6.9105358133547441E+01    1.0762871843614617E+02   -1.2619434460636535E+01
O    8.8667068196033725E+01    1.2123838540194981E+02    1.7776054013638671E+01
H    8.8450436069251538E+01    1.2224270298287398E+02    1.7905060971164524E+01
H    8.9645493007597722E+01    1.2111885530693417E+02    1.7933561430162840E+01
O    1.3641684842067832E+02    1.2547793659055321E+02    3.9081899583053449E+01
H    1.3634775174547690E+02    1.2556139727638721E+02    4.0058954236947848E+01
H    1.3551269443706440E+02    1.2575211878801639E+02    3.8841845590874996E+01
O    6.9874814487680766E+01    1.3761107781715168E+02    6.7193045844426621E+01
H    7.0642009676778358E+01    1.3702116419456382E+02    6.7048730567977955E+01
H    7.0061422175380486E+01    1.3798246414514387E+02    6.8034421286386447E+01
O    6.4366258309839665E+01    9.1017598526565408E+01   -1.0040538304838213E+01
H    6.4985297664074835E+01    9.1245672658376904E+01   -9.3187281881916597E+00
H    6.3838733355254867E+01    9.1786455254011457E+01   -1.0068689373748265E+01
O    6.1207879180956176E+01    2.1661506080988809E+02    7.9290728937375956E+00
H    6.0764414254901538E+01    2.1602066384901232E+02    8.5968321322311159E+00
H    6.1276696915153849E+01    2.1743479163162439E+02    8.4685153173507377E+00
O    8.2897725696425468E+01    1.2005755587597507E+02    3.9000471089114704E+01
H    8.2254703664828739E+01    1.1971574834394046E+02    3.9734622258878467E+01
H    8.2192278492813998E+01    1.2031964663844106E+02    3.8359989191982770E+01
O    9.9505147007976092E+01    2.1631593923917222E+02   -3.8112799654963382E+01
H    9.9298787949968514E+01    2.1540056101138700E+02   -3.8418720950578667E+01
H    9.9832151709452205E+01    2.1610509501821915E+02   -3.7188623190021218E+01
O    1.1379706680467510E+02    1.1605754113306091E+02   -1.1550105762340936E+01
H    1.1432190230890306E+02    1.1540821648780435E+02   -1.1014632663317176E+01
H    1.1334745129556437E+02    1.1669305698589558E+02   -1.0924986251368628E+01
O    1.4022473715350151E+02    1.6623541441267946E+02   -1.4551944340723541E+01
H    1.4091201182390864E+02    1.6571927650176204E+02   -1.4136970555498651E+01
H    1.3975989978676895E+02    1.6670756161911314E+02   -1.3802530635673490E+01
O    9.1213810233056435E+01    1.1529315937643356E+02    7.6396356008799657E+01
H    9.1326310968661147E+01    1.1578399713090568E+02    7.7232192182598695E+01
H    9.0356883951135458E+01    1.1498022624217144E+02    7.6561172521490846E+01
O    6.7286844461497452E+01    1.6142526802645926E+02   -2.0321734906421760E+00
H    6.7234511824972785E+01    1.6238305457825146E+02   -2.0907981931829314E+00
H    6.6845675891878216E+01    1.6128432272866880E+02   -1.0954192283440713E+00
O    6.5875329690875205E+01    1.6510637345719462E+02   -2.5676170932809029E+01
H    6.5173349946345965E+01    1.6576927562800091E+02   -2.5835478237059927E+01
H    6.6718137435359139E+01    1.6560845276844964E+02   -2.5854718283528296E+01
O    8.2634096832177519E+01    8.3679470386599363E+01    4.0552398129078959E+01
H    8.3278359749239655E+01    8.4322605100306802E+01    4.0980740849214037E+01
H    8.2837034866783355E+01    8.2871315290051655E+01    4.1119238260460008E+01
O    1.5114796190410775E+02    1.4701871760121779E+02    5.1192756892205686E+01
H    1.5016575147158130E+02    1.4701862741428204E+02    5.1369857957647248E+01
H    1.5151455550000756E+02    1.4722391407619494E+02    5.2065137309247241E+01
O    5.5468062088248359E+01    8.2594569247040312E+01    7.3558746775099735E+00
H    5.5796143537420200E+01    8.3279781360123209E+01    7.9966331598628333E+00
H    5.4892622530771519E+01    8.2058578067950009E+01    7.8988223948403684E+00
O    7.2288395492353601E+01    1.3183498537848391E+02    5.5595717994219882E+01
H    7.1832740338764609E+01    1.3262550274625534E+02    5.5991734841609883E+01
H    7.3015144155165160E+01    1.3153927259728368E+02    5.6124925175046023E+01
O    8.2403272384536280E+01    1.7984364589949547E+02    1.3267684771238388E+01
H    8.2519626854209292E+01    1.8017441096105853E+02    1.4192213095244876E+01
H    8.1451283496038656E+01    1.7985718380331750E+02    1.3103202179558439E+01
O    9.6788039172967828E+01    9.7339529076470484E+01    1.2534444440583522E+01
H    9.6541036217911042E+01    9.6912675968097702E+01    1.3370013081238866E+01
H    9.7549200019148614E+01    9.7898434056328711E+01    1.2828462056895308E+01
O    9.2389478423710841E+01    1.0195343985452664E+02    7.4634877620618028E+01
H    9.2030288125912492E+01    1.0115929171917006E+02    7.4996076623349438E+01
H    9.2370947727674150E+01    1.0266147233792748E+02    7.5363354734878513E+01
O    5.1104146576760840E+01    1.2743406421173894E+02    3.9932111823656996E+01
H    5.1964224650601089E+01    1.2783237051728891E+02    4.0193331963641867E+01
H    5.0830477801958843E+01    1.2697335320987929E+02    4.0770098454802344E+01
O    7.0823421143290560E+01    1.1851646109323221E+02   -6.3046069885770191E+00
H    7.1374494243309414E+01    1.1901822445302467E+02   -5.6203856282213938E+00
H    6.9979059617812496E+01    1.1828240153611696E+02   -5.8535023344764028E+00
O    2.9358385079515795E+01    1.2872177997920633E+02    4.3743897674338655E+01
H    2.9207265735304535E+01    1.2949977567442099E+02    4.4246725447860008E+01
H    2.8688241182356766E+01    1.2811922181191460E+02    4.4062584575015720E+01
O    7.0404030361452726E+01    1.6996055510192582E+02    2.2871803978392006E+01
H    6.9765047390198418E+01    1.7001565187003803E+02    2.3618931046097227E+01
H    7.1333688096263145E+01    1.6990451027478210E+02    2.3250571291644825E+01
O    9.6505288533676520E+01    1.1077632934063909E+02    3.8036687770164107E+01
H    9.6939748025072618E+01    1.0990254297471789E+02    3.7972778081199223E+01
H    9.7171861477501025E+01    1.1119050429703215E+02    3.8634627642801483E+01
O    5.6252955603690161E+01    1.6723215657641137E+02    4.1630689193372223E+00
H    5.6913993183199040E+01    1.6715280186097939E+02    4.8854883366556425E+00
H    5.6723493698124898E+01    1.6774644301321058E+02    3.3848529945786638E+00
O    1.0381572121211609E+02    6.1318245684152920E+01    5.0367834325429897E+01
H    1.0287582029859604E+02    6.1421248128785358E+01    5.0549823265787062E+01
H    1.0413557913753552E+02    6.2203624317473079E+01    5.0437182457809570E+01
O    1.0552226682580978E+02    1.4232949587457745E+02   -1.1834400438808332E+01
H    1.0604836956435865E+02    1.4211836520951212E+02   -1.2660901095151871E+01
H    1.0613648875947064E+02    1.4206097530319252E+02   -1.1113467296098474E+01
O    5.9902521998094045E+01    1.9876296097338795E+02   -1.2761960824150838E+01
H    5.9443161505697041E+01    1.9787252179665762E+02   -1.2798756599875658E+01
H    5.9981024619784215E+01    1.9892402743213819E+02   -1.1781855881023034E+01
O    9.1497018618687406E+01    1.5272772466193757E+02    1.0284150239749588E+01
H    9.1098107245307844E+01    1.5191718164852830E+02    1.0011611084020958E+01
H    9.2281871056756287E+01    1.5248314855694150E+02    1.0793030382620088E+01
O    4.7922226825487932E+01    1.3989816025966033E+02    7.5824228821521672E+01
H    4.8661017116462752E+01    1.3939380848521836E+02    7.5440316877010304E+01
H    4.7953037043979194E+01    1.4086218880035534E+02    7.5610253725186567E+01
O    8.0539723400768182E+01    1.3699441465991129E+02   -1.5086059053498317E+01
H    8.0670704999117874E+01    1.3624912525756778E+02   -1.4440171369213390E+01
H    7.9958977144982271E+01    1.3773453255073090E+02   -1.4764721915438468E+01
O    7.9172212907957231E+01    1.9435531633999642E+02    4.0267040236962170E+00
H    7.8185906134833544E+01    1.9445785069746142E+02    4.1400569300222365E+00
H    7.9588006044792166E+01    1.9510158478777362E+02    4.4567048724535958E+00
O    7.7470037227795657E+01    1.9001946814420134E+02    6.3532274027006643E+01
H    7.7949262933296538E+01    1.8999871520457816E+02    6.4391169847652236E+01
H    7.6875755140400997E+01    1.9077245454930110E+02    6.3589426980164767E+01
O    6.2569608264017710E+01    1.2848099778586064E+02    3.4873869685545934E+01
H    6.2229651683773952E+01    1.2858714109004762E+02    3.5772746491913132E+01
H    6.3170250505075082E+01    1.2772866939778160E+02    3.5133615573249109E+01
O    4.5289041867330937E+01    1.3237889375012472E+02    6.9568091305326814E+00
H    4.6045066513210159E+01    1.3208231509060354E+02    7.5513246548123067E+00
H    4.5526174876286397E+01    1.3328873784980840E+02    6.8612122244409832E+00
O    9.7474578217692553E+01    1.8264940609994585E+02    7.5094865086948573E+01
H    9.8483283047497238E+01    1.8277589710673655E+02    7.5353679884493602E+01
H    9.7036008218889506E+01    1.8225048417762133E+02    7.5829588434163625E+01
O    7.2998894308683333E+01    2.1366999571157152E+02    6.7151371606924579E+00
H    7.3203793756552869E+01    2.1269665003587642E+02    6.5537405167673128E+00
H    7.1982789692800708E+01    2.1380975438131443E+02    6.7511180809365730E+00
O    8.8333912086395813E+01    1.4330683222686343E+02    3.1726721256313795E+01
H    8.9266321490910585E+01    1.4365614072085367E+02    3.1714351329097834E+01
H    8.8170735909291778E+01    1.4336839090507041E+02    3.2711307837339938E+01
O    1.2641327144232960E+02    1.6672953877539362E+02    2.0640623081718545E+01
H    1.2660983576155427E+02    1.6764041557654033E+02    2.0950712200235756E+01
H    1.2570760835410744E+02    1.6631450620908979E+02    2.1185487360702151E+01
O    1.4434336004223802E+01    1.0773926549583545E+02   -4.4111914704474245E+01
H    1.4095163526428294E+01    1.0679599557974151E+02   -4.4169012478820271E+01
H    1.5113666439913004E+01    1.0783117451572049E+02   -4.4827451709062856E+01
O    1.0354172318131114E+02    2.1084934724142025E+02    3.1204800153570325E+01
H    1.0331127276929449E+02    2.1114321379453438E+02    3.2073171999204973E+01