     384
 i =  2800001, time =  1400000.500, E =     -2210.6203392068
  O        89.6527175222      102.0877091474       -7.1775501087
  H        89.5703614748      102.4863228829       -6.2947382527
  H        90.2472412031      102.6551310836       -7.7425748650
  O        82.4460066937      133.4355837429       31.5528975294
  H        83.3544478067      133.6605890463       31.4789055306
  H        82.2724884889      133.4192344496       32.5089802856
  O        71.2948962240      100.5047781487       22.4126369837
  H        71.3172499992      101.4255355410       22.5414933671
  H        71.9805249697      100.2790741918       21.7459487754
  O       128.0033839270      109.6619955337       45.0680754414
  H       128.0542426723      110.3581368008       44.4390407290
  H       127.1379490742      109.7233293298       45.4974281523
  O        94.1736349692      124.7126748826       -1.0410962175
  H        93.7546195711      124.5983387904       -0.1876602469
  H        93.5136364276      125.0874250558       -1.6618947691
  O        94.8339350012      139.2568173636       -8.2677107727
  H        94.9677549370      139.4613878785       -9.1860129457
  H        95.4332083773      139.9254688128       -7.8631624798
  O        46.9205564778      164.9302381047       14.6828405129
  H        47.0777219674      165.6060640328       13.9839793634
  H        46.0029562698      164.6260927979       14.5707187221
  O        48.8088174531      103.2301224587      -10.8250119028
  H        48.9266976250      103.0422214770      -11.8196784840
  H        49.5698989301      102.7677521452      -10.3648243366
  O        78.5333472706      160.7591456537       11.0586054114
  H        79.2586983065      161.3878653181       11.2383731180
  H        78.1950336658      160.5930618550       11.9664629307
  O        79.6886250961      153.1971767735       19.5352294276
  H        80.4805110482      152.5699841504       19.7503465198
  H        79.9037527276      154.1670763055       19.5062795304
  O       105.2213503278      162.3959522213       16.4742850501
  H       104.9687760150      162.0759351343       17.3636774201
  H       105.3359127339      161.5857782160       15.9322230002
  O        66.8577772012      121.2486894682       16.4654339119
  H        67.3202696081      121.9800385400       16.8419852691
  H        66.5038762346      120.7558077462       17.3307016074
  O        67.6051385741      192.9267753039       16.0229391601
  H        67.5944062005      193.7400473898       15.5576756615
  H        66.8457229273      192.9530236491       16.6565459358
  O       112.1973309580      210.5323230346       -1.5962817560
  H       112.8337860185      211.0519358756       -1.0587549745
  H       111.4312407183      211.0300451002       -1.5047999661
  O        59.3618641466      131.8918779596      -10.0126937033
  H        60.1808354320      132.2974308842      -10.2848361591
  H        59.5623305570      130.9273368484       -9.9754142906
  O        97.8935429839      148.6901169017      -12.6571479458
  H        97.1289409667      148.1938345454      -12.3136342524
  H        98.6916063990      148.2834333274      -12.2147677880
  O        53.2441257238      114.2348625453       36.7262999122
  H        54.1035362378      113.8319299491       36.8396720093
  H        52.8723191321      114.3983742351       37.6465443363
  O        56.0877193844      127.5970211424       14.3222548644
  H        55.1667313003      127.3583265483       14.6024186210
  H        56.5303830420      126.8913990688       13.7928432027
  O        75.1626815196      138.7716543842       19.1434450459
  H        74.4143648939      138.1448190190       19.0010999934
  H        75.7581771324      138.1808387634       19.6946768099
  O        57.0266946395       96.3890604334       88.3965525243
  H        57.2524845723       96.5679196372       87.4510591885
  H        57.3295410523       95.5020265220       88.5623358369
  O        55.8937063365      147.7245172241       -0.3020299400
  H        56.7128240705      147.3164593391        0.0084419843
  H        55.7080916275      147.1233720333       -1.0844652969
  O        44.6633431973      139.3039588888        7.8107682880
  H        45.1156441309      139.5320447714        8.6454138135
  H        45.4250581755      138.9059143063        7.3044500555
  O        63.8126583687      181.4751856071       33.2017830162
  H        63.5727911796      180.9416627307       32.4121530408
  H        63.7944541649      182.4278478934       33.0028415882
  O        30.0067617752      146.5675303486       24.4170687642
  H        28.9696053732      146.5130223365       24.4649526762
  H        30.3487897224      145.9939184835       25.1748600172
  O        40.6088330772      140.5994853971       33.6902123605
  H        41.1661255872      141.2006257891       33.0782256923
  H        40.6269053233      139.7040898232       33.2816408509
  O        33.5536385979      139.1539037292       10.8875187519
  H        33.7933611387      138.1853584455       10.8044187878
  H        33.8405781319      139.3783628923       11.8308331858
  O       124.6634839146      111.7786483236      -13.5832706639
  H       125.5687768002      111.6176694036      -13.9300691241
  H       124.6772882032      111.4283731296      -12.6668337297
  O        42.4407427433      120.1589338946      -14.9387370892
  H        41.9142819209      119.6417635213      -14.2585471544
  H        42.3605041982      119.6924721457      -15.7597770195
  O        57.5381807506      158.2803654040       32.3608622675
  H        57.2547152901      158.4169698728       31.4288336682
  H        58.5561231023      158.1027399326       32.2181869633
  O        80.1847737014      165.1269238649       10.2234877315
  H        80.6333294800      165.9284415168        9.9618166808
  H        79.8011762161      165.3775821064       11.1190016242
  O        72.7136823563      162.8625704653       19.6291565145
  H        73.5856826272      162.8391047962       20.0801058416
  H        72.4821611270      161.9489216910       19.5845669455
  O        19.9988471335      127.0156484718       23.4386311576
  H        20.0093810985      126.1592357952       23.8636804611
  H        20.7177626505      127.0063375592       22.8101581066
  O        88.0106701437      122.6470450181       16.2652159701
  H        87.3055445276      122.3649282377       15.6520929092
  H        88.4989047696      121.8372976618       16.4832302123
  O        66.1263516962      131.7733705969       -8.0687175522
  H        65.4327668114      131.2898020705       -7.5634615113
  H        66.9930640995      131.5847687739       -7.7315283801
  O        90.0126218444      130.6716476657       -7.0769687578
  H        89.7778626819      129.9836981618       -7.6807656471
  H        89.8185054805      131.5763560289       -7.4387849269
  O        85.0087986660      166.1803874459        1.4860293185
  H        85.8703472026      165.7817094974        1.8567896186
  H        85.1474030470      167.0713179212        1.8127103996
  O        95.7025488173      167.7872258629       54.3108936101
  H        95.7038688559      168.8161053641       54.3850416775
  H        95.0024115223      167.6046212930       53.5869454537
  O        90.8615105507      153.0097948040      -34.3026423488
  H        91.8315367270      152.8336464316      -34.5347354732
  H        90.7953389133      153.5683887242      -33.5394365760
  O        64.6427025210      158.5118779972      -14.8050971889
  H        65.0810720805      159.2335927088      -14.2902655605
  H        65.0439670824      157.6014720996      -14.6189199752
  O       100.1846495019      117.8191434359       43.9346969020
  H       100.5701006944      118.3203234861       44.6511552054
  H       100.1393488116      116.8930678275       44.1505347392
  O       117.8718522559      123.2695074646       24.7323220803
  H       117.8861185387      124.2611219107       24.7605762771
  H       117.1016229019      123.0991864612       25.3062593444
  O        86.2404935607      165.8100275212       20.0929808083
  H        85.6688284267      166.5550174386       19.7840006309
  H        85.8417768479      164.9960053995       19.7562021916
  O        39.8799590228       98.8265007730       13.3077333533
  H        40.2329618111       97.8830561930       13.4605622838
  H        40.3188376515       99.2297545324       12.4719706950
  O       101.8189163462      126.4590904339       37.9543812068
  H       102.4228999651      125.6926374588       37.7820244207
  H       101.1451420331      126.5334407726       37.2421415179
  O        81.9936723086      140.7193393937       35.6870413687
  H        82.6845331840      141.4364349687       35.7345768901
  H        82.3208536979      140.1349681732       36.4610237059
  O        85.7552855315      146.7593400508       48.5506740133
  H        85.0421826765      146.3023636614       48.0895587393
  H        86.3336841648      147.2191139540       47.8456285845
  O        53.6106551852       79.5780113763       30.9012656881
  H        52.7924968333       80.0614345670       30.6524508238
  H        53.2669958709       78.6426285135       30.9067891126
  O       120.5310913993      157.0438619145       29.0474671507
  H       120.2977985423      156.6321277314       28.1880013029
  H       121.0318269899      156.3443118376       29.5674019952
  O        77.5200251236      139.6771700242       41.7718050440
  H        77.2000188970      140.1095566098       42.6213540532
  H        78.5259231105      139.7813889427       41.7593653158
  O        77.4959341868      128.7581397290       -9.3335717398
  H        77.0854902033      128.6568969252       -8.4584097867
  H        78.4246164805      128.4553917745       -9.2881864260
  O        89.6685019703      128.0846586544      -24.1701920156
  H        88.9873660136      128.1703736563      -24.8699035761
  H        89.9766465730      127.1622251713      -24.4535674216
  O        92.1103696296      142.8483263629      103.2055610171
  H        91.4757490534      142.3093225193      103.7243308304
  H        91.9359746336      143.7284421839      103.6505957974
  O        50.2535758924      160.9242640981      -13.3961231227
  H        49.4188945742      161.3739950785      -13.3923782282
  H        50.4366009026      160.9985857615      -12.4581400443
  O        68.4230661055      107.9639504672       17.5389120363
  H        68.2114584511      108.1597509504       16.6198127261
  H        68.7253663448      108.8519241922       17.8801534727
  O       115.6343963522      141.8294031773      -19.3927502774
  H       115.8493024428      141.9382762675      -18.4681687532
  H       114.7990999492      142.3969063335      -19.4407236006
  O        70.0537819185      112.9991593722       25.6830722476
  H        70.7869009612      112.3641045010       25.6041469194
  H        69.2987258359      112.4074465311       25.8941540001
  O       100.2775473494      132.2529598358       50.7453331573
  H       100.2964383719      131.5017332744       51.4113698911
  H       100.5539491206      131.8459770549       49.8936691759
  O        92.3178823678      101.0247053318       33.0783325617
  H        91.4313399785      100.7096136161       32.8727818414
  H        92.3918002792      101.7987253516       32.5212062949
  O        72.2691016164      146.7303007231       10.8297163248
  H        73.1282103697      146.6987532616       10.3923592102
  H        71.5587954213      146.4975954633       10.1812025273
  O        43.6413623606      112.7210241229       27.2759204415
  H        43.4449370325      113.7604228901       27.3274839461
  H        42.9285324628      112.4197355457       26.6709477115
  O        94.3425482255      145.9586861397       48.8390578080
  H        93.7722695542      145.1947330073       49.0315875646
  H        93.6071663392      146.6771676275       48.5586622857
  O        51.2357142242      119.9317474729       44.8538353386
  H        51.1889185028      119.7081998936       45.7763166262
  H        51.7162833771      119.2187584803       44.3468713270
  O        84.3701722052      106.2718660453       13.5955678648
  H        85.2854675607      105.9262364972       13.5631008575
  H        83.7472719621      105.5378605730       13.6913341967
  O        87.0973027796      168.6170393936       13.4666346474
  H        87.5955577368      169.2045031118       12.8669811893
  H        87.5852105543      167.7661212477       13.5002666456
  O        30.7173833706      128.6606298533      -17.7719998616
  H        31.3433290113      129.0711648435      -17.1822315707
  H        29.8097150652      128.8212728290      -17.4650516413
  O        76.8031200985      139.3979790266      -14.4822574492
  H        77.4939682084      138.6744767658      -14.3962319688
  H        76.3963426251      139.3106738739      -13.5822613040
  O        90.5458965077      131.1228141893       27.5083556846
  H        90.6159548034      131.5284814093       28.4200426989
  H        91.3685589315      131.3690966460       27.0201389584
  O       116.4799523405      169.4785885908       69.2692956517
  H       117.1170111268      169.9819173878       69.8309590779
  H       116.2204415155      168.6817543016       69.7415374487
  O       119.1362119801      152.3316398313       40.6474028737
  H       118.5993138300      153.0890569444       40.5364123423
  H       118.8582300948      151.7139034250       41.3342126178
  O        43.5643341624      152.2766508233       24.1046332625
  H        42.6890824169      152.5344355406       24.3931712178
  H        44.0083371009      153.0230451937       23.7153957022
  O        48.1005456809      150.9261301178       28.2199710151
  H        47.5843912147      151.6273207619       27.7871235243
  H        48.8045850269      151.4079354400       28.7090190477
  O        67.9323682264      139.7782946596      -16.3472138377
  H        67.1792697068      140.2656449283      -16.7817009976
  H        68.2182693797      139.0333078817      -16.9750341863
  O        76.2409471535      119.1461075305       41.4418774782
  H        75.6477921185      119.7234687963       40.8836399078
  H        76.7765475970      118.6417620198       40.8199699571
  O       105.1994247170      134.9631193369       13.5367463816
  H       105.8495604409      135.6564244138       13.2685210016
  H       104.7210785036      134.6698225703       12.7849341036
  O        58.7250014628      141.0336860627       37.7449604847
  H        58.8044138360      141.0931272299       36.7472563992
  H        59.6011703904      140.6982717283       38.0873778755
  O        65.4255138652      130.9050700264       -4.7032082629
  H        65.8463860347      131.1673841721       -3.8494197930
  H        65.1079922218      131.7329619006       -5.0947812022
  O        82.6569317605      143.9632508947       -5.5904802351
  H        82.7014522088      143.7041245017       -6.5489508542
  H        82.4241225766      144.8928069707       -5.5559306039
  O        60.2558644783      111.3094268338       62.8497466151
  H        60.8907387815      111.4573082414       63.5978637285
  H        60.7571456706      110.8166663981       62.1898677576
  O        84.4518452837      185.1302625076       10.5920512103
  H        84.5190064354      185.1493972095       11.5610591512
  H        84.3196306308      184.2174465253       10.3182327738
  O        84.5729201660      106.2095746686        3.9386053570
  H        84.9603495535      106.6160166593        4.7339225329
  H        84.3274016956      106.9387060352        3.3261269281
  O       117.2860347326      157.1663578966        9.4646609027
  H       116.8299126179      157.4028565821        8.6674279712
  H       116.6831400607      157.1645976346       10.1816525839
  O        90.5332924958      141.6812660848       50.6058294847
  H        89.8737095541      142.0218654000       50.0210855911
  H        90.7584989283      140.7473528592       50.3876489144
  O        77.9579934297      133.3827203672        8.5294630831
  H        78.7317405677      133.5939853655        9.0477186418
  H        77.7611676946      132.3666711579        8.6751052892
  O        74.6282678515      155.0891016718       -0.6779361065
  H        75.3310261870      155.2101844692       -0.0482451947
  H        73.8027240298      154.9180594176       -0.1469865458
  O        67.0383809559      108.9023708036       56.3617798853
  H        66.2194748381      108.6382656784       56.8667910500
  H        67.6989965013      108.3554532015       56.8689937693
  O       100.9091873942      141.7303766274       18.0506188247
  H       100.8167953954      141.8983742533       17.0792370529
  H       101.8608361044      141.4062499998       18.0510533683
  O        75.2395757452      101.3639468100       14.1480720958
  H        74.8174884076      102.1803106949       13.7496468266
  H        74.6020172514      101.0545159547       14.7934504513
  O        71.2089280491      150.4754025368       38.5939824357
  H        71.7672333187      150.8955041924       39.3075474028
  H        71.7595745154      150.5695793989       37.7761259136
  O        96.0756900831      158.5930474087       42.7908155189
  H        95.4786877248      159.3210219330       42.6455011653
  H        96.9235022871      158.9820634183       42.5041389508
  O       103.3448493794      144.7850612156       18.1687339741
  H       103.6808404283      144.1955745380       17.4523067037
  H       102.6745240307      145.3141866177       17.7812882716
  O        91.1318582526      119.4021990249       51.5771714394
  H        91.2917990443      119.2617057803       50.6066885166
  H        91.8156019948      118.8415573821       52.1406456716
  O        72.0323911518      118.3742635278       11.4433731167
  H        72.3208017159      117.5063266213       11.2321313556
  H        71.2349320733      118.4167690431       11.9156049786
  O        57.6499348216      135.8729988363      -25.5485803080
  H        58.2149176206      135.4090719212      -26.2033102130
  H        58.3143687281      136.0960016289      -24.9291671140
  O        37.6158454458      146.7128285990       23.9344842381
  H        38.0686543383      145.9439915771       24.3003716130
  H        38.3687771492      147.0447105015       23.3469992639
  O        81.2310931255      152.2446841342       25.8070308137
  H        81.1349149856      152.4099814136       24.8511092545
  H        82.1624522283      151.9905177940       25.9937989681
  O        98.0651888282      123.2059109212       37.9757696332
  H        98.0612591524      123.5146443663       38.8839399058
  H        99.0021953608      123.1773214596       37.8049507590
  O        70.8430172680      166.0031929740      -16.7667014885
  H        70.2542207087      166.2641806599      -16.0111286430
  H        71.0688893198      165.0318952094      -16.5226587468
  O        94.4102638351       90.3137537559       32.4875853631
  H        95.0256666655       90.4332885561       31.6533888997
  H        94.7827532518       90.6397588690       33.3058875829
  O       108.4371168934      137.4580726153       20.6976210906
  H       109.2891747861      137.3321625050       20.2549251905
  H       107.9932904617      136.5819290965       20.6547283436
  O        57.5272387635      154.4087582666      -20.0253114693
  H        58.3196896843      153.8288600303      -19.8286824230
  H        57.0205545888      153.8495810711      -20.6550955915
  O        94.9738219959      140.3556758242       20.3833161303
  H        94.3898380766      141.1134534552       20.5488454282
  H        95.9133921177      140.7784164395       20.2062819068
  O        64.0818740544      160.9494965764       46.2601151445
  H        64.4722569077      161.8069342714       45.9612551140
  H        63.6273062857      161.2214342563       47.1164969308
  O        67.0734180292      128.1278695713      -16.5925962843
  H        66.1229693799      127.9380587500      -16.5444002510
  H        67.2093693430      129.0376160279      -16.1423235278
  O        81.7201297486      161.2851892572       20.9240113695
  H        80.8572932800      161.6929189605       20.7281423278
  H        81.9892823387      162.0231361364       21.5921475951
  O        77.5671823601      164.9246575544       37.1007378247
  H        78.2652118519      165.3934500961       36.5658203335
  H        77.8216824477      164.9602292086       38.0758809827
  O        59.2352540324      113.4605595611       45.9898165926
  H        58.7450153903      113.2095280337       45.1996228137
  H        59.5201215379      112.7480784501       46.5651645027
  O        48.7057115701      131.6877900332       35.7641642691
  H        48.1475739495      131.4717066261       34.9717218691
  H        48.1601347677      132.4044237970       36.2106050878
  O        60.4547714580      161.2950867243       50.6780730535
  H        60.5189736644      162.2652660592       50.8005678898
  H        61.2028767293      160.9780437543       51.2458460170
  O        48.0617988820      157.6751079429       24.8048175999
  H        47.0652675525      157.6383028693       24.8458823717
  H        48.2688496675      157.7271391053       25.7328549214
  O        58.6243467139      140.7518116497        9.6978632264
  H        58.2385715477      140.0986867526       10.3487673727
  H        58.8319381395      140.1766933103        8.9591235561
  O        91.9843084968      135.3843061258        1.8221955663
  H        91.0658417398      135.5487081740        1.3492703604
  H        92.4620061555      136.1888764050        1.5767357530
  O        60.9912636632      110.3471520085       -2.6698211626
  H        60.0480036705      110.4231664599       -2.8077002039
  H        61.4110980193      111.2360599702       -2.7265911344
  O       128.1974559712      187.2101082242       48.7594545994
  H       128.5405442593      187.2572084587       49.6785477251
  H       128.8066376914      186.6656333623       48.3110305875
  O        52.9682175886      119.7971032622       54.7530915597
  H        53.6317982649      119.2494516157       54.3549931992
  H        52.0624285147      119.4432905710       54.5689128030
  O        61.3550470965      110.8114414852       36.1541023300
  H        60.4732030039      110.5556651979       35.7388045505
  H        61.2528403216      111.5677559779       36.7492675043
  O        56.5882312889      122.1848468270        4.1047145403
  H        55.8667228962      121.7840840099        3.6698385225
  H        56.8621708009      121.6127452201        4.8751366265
  O        87.1990762452      113.0285899097        5.2845092855
  H        86.9450429803      112.1885128595        5.7998175522
  H        87.2993364475      112.6540392459        4.3487920146
  O        95.8483205682      112.0212517726       21.7120057845
  H        96.3758332214      111.4142697915       22.2987319144
  H        96.5478683561      112.6734795437       21.3765104001
  O        56.2564303218      171.1771301663       -9.3323754333
  H        57.2319622291      171.4109892267       -9.3284316375
  H        56.1142757080      170.8346472899      -10.2589170204
  O        52.8156498661      111.5330068540      -26.6189217222
  H        52.7270533357      112.4958278976      -26.4446005347
  H        53.3498108180      111.4604756365      -27.4091725093
  O        48.6806787957      145.2155722770       71.1425246781
  H        49.1443028627      144.7049148665       70.4086518724
  H        48.3598483126      144.5428659480       71.7735863583
  O        34.9445299547      118.7600216656       38.3917028201
  H        34.4728723151      117.9526556516       38.7701623032
  H        34.3341757946      119.5146022422       38.4694293331
  O        66.6362302007      135.8476538389       34.5816696711
  H        67.4735828457      136.2865744321       34.9530511531
  H        66.7442475401      134.8775281448       34.6226699728
  O       124.6050202550      183.9155086006       74.1161257577
  H       124.5924347310      184.7698831139       73.6158973779
  H       124.1090022647      183.2677819833       73.5003168719
  O        87.9164686497      102.9536306429       65.0126511051
  H        87.4623667718      103.2340735164       65.8334415018
  H        87.9055253147      101.9958772224       65.1606673447
  O        68.2936056593      166.6872338596       26.0755709780
  H        68.4715711282      165.8931021627       26.6510155683
  H        68.6082145957      166.3907131461       25.1325452776
  O        96.1509455399      153.3809151330       30.4327657898
  H        97.1010890942      153.3122903786       30.6623996318
  H        96.0059979644      154.3451217492       30.1909419052
  O        68.5639886183      115.1005635852       12.9107433142
  H        68.4208643655      114.6448893434       12.0542710657
  H        69.4683834754      114.6750353760       13.1899890221
